Ni Pd                                   
    1.000000000000000     
    23.4033703473286749    0.0000000000000000    0.0000000000000000
     0.0000000000000000   25.7153174749646176    0.0000000000000000
     0.0000000000000000    0.0000000000000000   21.5303817743277577
   Ni   Pd
     6     4
Direct
  0.4540116245388061  0.5120208639283489  0.5300350152263213
  0.4558764917726171  0.5966443196904639  0.4894471243816348
  0.4955278028109587  0.4300484077852795  0.5258615168499065
  0.4990159639584500  0.4805288156034946  0.4377977503783978
  0.4151561307907903  0.5274270170651534  0.4330240012224563
  0.5403173729032379  0.5465155762115859  0.4963227848266210
  0.5409061868113816  0.4962654070088347  0.5947339648596617
  0.4018182618430615  0.4378258122289037  0.4732850036648618
  0.5915337492183845  0.4611034928111015  0.4915561340343638
  0.5027828317049391  0.5714998412716782  0.3922945085429009
 
  0.00000000E+00  0.00000000E+00  0.00000000E+00
  0.00000000E+00  0.00000000E+00  0.00000000E+00
  0.00000000E+00  0.00000000E+00  0.00000000E+00
  0.00000000E+00  0.00000000E+00  0.00000000E+00
  0.00000000E+00  0.00000000E+00  0.00000000E+00
  0.00000000E+00  0.00000000E+00  0.00000000E+00
  0.00000000E+00  0.00000000E+00  0.00000000E+00
  0.00000000E+00  0.00000000E+00  0.00000000E+00
  0.00000000E+00  0.00000000E+00  0.00000000E+00
  0.00000000E+00  0.00000000E+00  0.00000000E+00
