Ni Pd 
 1.0000000000000000
    23.4033703473286749    0.0000000000000000    0.0000000000000000
     0.0000000000000000   25.7153174749646176    0.0000000000000000
     0.0000000000000000    0.0000000000000000   21.5303817743277577
 Ni  Pd 
   6   4
Cartesian
 10.6232587436283019 13.1679025978792730 11.4089149064409519
 10.6664960779773690 15.3422872560808923 10.5368034186074730
 11.5984090783145160 11.0583426337553163 11.3224537309379247
 11.6786549738785421 12.3577757523923193  9.4254844887946057
  9.7177588618408244 13.5640582437648938  9.3256292334179118
 12.6452160446204083 14.0514861491254575 10.6847145392789820
 12.6595402761764610 12.7610244186788364 12.8037709345308102
  9.4073037954365439 11.2595012866701278 10.1921271975247159
 13.8400716342900623 11.8574149463011445 10.5835759122836226
 11.7683410667614243 14.6966158213825828  8.4480062449567068
