Cu                                      
    1.000000000000000     
    24.5097671663942336    0.0000000000000000    0.0000000000000000
     0.0000000000000000   24.2831569599109223    0.0000000000000000
     0.0000000000000000    0.0000000000000000   24.3638904262585534
   Cu
    13
Direct
  0.5115608686820882  0.4250845495425776  0.5469029570104974
  0.5466536680017249  0.4442225938708323  0.4559743516822901
  0.5743192989739349  0.4999418490661911  0.5371556863797768
  0.5174354312055542  0.5417748432549752  0.4633660380178975
  0.4214238961598847  0.3939866638439626  0.5368747136225716
  0.4835138050408695  0.5285341537376829  0.5613389631645495
  0.4503516737954957  0.4673906182372133  0.4734029110718987
  0.6058951826086595  0.4053941794193935  0.5222456955706252
  0.5095881441969078  0.6183111249300427  0.5201944291224697
  0.3912865765995231  0.4944993960551323  0.5471284205729757
  0.4254469172459347  0.5699175863606771  0.4936328593310906
  0.4977247562302157  0.4879464488153583  0.3845913844137476
  0.4473753193970567  0.4541230877573544  0.6168590339941205
 
  0.00000000E+00  0.00000000E+00  0.00000000E+00
  0.00000000E+00  0.00000000E+00  0.00000000E+00
  0.00000000E+00  0.00000000E+00  0.00000000E+00
  0.00000000E+00  0.00000000E+00  0.00000000E+00
  0.00000000E+00  0.00000000E+00  0.00000000E+00
  0.00000000E+00  0.00000000E+00  0.00000000E+00
  0.00000000E+00  0.00000000E+00  0.00000000E+00
  0.00000000E+00  0.00000000E+00  0.00000000E+00
  0.00000000E+00  0.00000000E+00  0.00000000E+00
  0.00000000E+00  0.00000000E+00  0.00000000E+00
  0.00000000E+00  0.00000000E+00  0.00000000E+00
  0.00000000E+00  0.00000000E+00  0.00000000E+00
  0.00000000E+00  0.00000000E+00  0.00000000E+00
