Cu 
 1.0000000000000000
    24.5097671663942336    0.0000000000000000    0.0000000000000000
     0.0000000000000000   24.2831569599109223    0.0000000000000000
     0.0000000000000000    0.0000000000000000   24.3638904262585534
 Cu 
  13
Cartesian
 12.5801902383681714 10.2879644870092495 13.3381023609400948
 13.4697662295868241 10.7975896154986302 11.0447733906085190
 14.1829617669916228 12.2137481313006777 13.0421736458063506
 12.8662126558680434 13.1911568002930686 11.2288840790249456
 10.1605753282116993  9.7041775447038656 13.1623559542560500
 11.8550588567638719 12.6885782910846192 13.5956465339326389
 11.1170366264914779 11.3352901181007528 11.6161153769864871
 14.9346821289810929  9.9553057553966227 12.7705901905525909
 12.4127548564107428 14.8979677966219164 12.8616589438998137
  9.4855776835414751 12.0597201652101127 13.3345095070282422
 10.5204010964149699 13.7362898159206903 11.7840242772796984
 11.9373906623757531 11.8914652687717037  9.4301784010380452
 10.9128322316766688 10.9804991884806586 15.0463952184756540
