Ni Pd                                   
    1.000000000000000     
    22.0899813031996857    0.0000000000000000    0.0000000000000000
     0.0000000000000000   21.6872348476615713    0.0000000000000000
     0.0000000000000000    0.0000000000000000   24.2059569777757915
   Ni   Pd
     6     4
Direct
  0.5487843597897211  0.5356226836622042  0.5053352337055657
  0.4944653239168701  0.5245348010689099  0.6204733784257286
  0.5077133986509779  0.4519906705825107  0.5514229659702750
  0.4091986807376671  0.4747662445717040  0.5861385727381929
  0.4278004026700302  0.4703847262485610  0.4917011264309039
  0.4532821514659418  0.5598459873818982  0.5383761499748090
  0.5444306301444257  0.6153364551905796  0.5781336097300169
  0.6002589816021313  0.5047384402225532  0.5915255745638675
  0.5259894495646549  0.4441112300406331  0.4482474998088080
  0.4702589869098119  0.5550197877411094  0.4349537119432512
 
  0.00000000E+00  0.00000000E+00  0.00000000E+00
  0.00000000E+00  0.00000000E+00  0.00000000E+00
  0.00000000E+00  0.00000000E+00  0.00000000E+00
  0.00000000E+00  0.00000000E+00  0.00000000E+00
  0.00000000E+00  0.00000000E+00  0.00000000E+00
  0.00000000E+00  0.00000000E+00  0.00000000E+00
  0.00000000E+00  0.00000000E+00  0.00000000E+00
  0.00000000E+00  0.00000000E+00  0.00000000E+00
  0.00000000E+00  0.00000000E+00  0.00000000E+00
  0.00000000E+00  0.00000000E+00  0.00000000E+00
