Ni Pd 
 1.0000000000000000
    22.0899813031996857    0.0000000000000000    0.0000000000000000
     0.0000000000000000   21.6872348476615713    0.0000000000000000
     0.0000000000000000    0.0000000000000000   24.2059569777757915
 Ni  Pd 
   6   4
Cartesian
 12.1226362472432836 11.6161749303169248 12.2321229264312539
 10.9227297604041933 11.3757094165528230 15.0191519040284067
 11.2153794835840230  9.8024278218749501 13.3477205908340650
  9.0391912067891127 10.2963670437688126 14.1880450747155233
  9.4501028964822638 10.2013440269055753 11.9020963123103165
 10.0129942509567549 12.1415114068721959 13.0319099241507192
 12.0264624407796088 13.3449462140456134 13.9942772845309538
 13.2597096806687897 10.9463810897489342 14.3184426091471231
 11.6190971065635900  9.6315445443751049 10.8502596957674982
 10.3880122284994396 12.0368444818407490 10.5284708386222565
