Cu                                      
    1.000000000000000     
    21.9615204888667854    0.0000000000000000    0.0000000000000000
     0.0000000000000000   25.3603150584563188    0.0000000000000000
     0.0000000000000000    0.0000000000000000   24.4996651920358310
   Cu
    13
Direct
  0.5795908607512124  0.4422569383053715  0.5294387810879421
  0.5127237678461992  0.5076254309463391  0.5717479215726341
  0.5456234544125824  0.5059094099754505  0.4659280680074946
  0.4717851416479066  0.6016189734047592  0.5607787156602528
  0.5094227370328337  0.4062294699850007  0.5944910267346413
  0.5226819523224123  0.5518198486429507  0.3833431974777805
  0.5690445505653561  0.5795189889201269  0.5211695527818115
  0.4440610320644874  0.5035533052273342  0.4323312892437465
  0.4708480430250944  0.4421897364230473  0.5072562472768996
  0.4185959987701747  0.4559797759027755  0.5938150420822976
  0.4800902039864539  0.5889512634797823  0.4643951757439891
  0.4257284094266597  0.5440618181570259  0.6263713962506195
  0.4157135983031057  0.5275307727506863  0.5251476744916250
 
  0.00000000E+00  0.00000000E+00  0.00000000E+00
  0.00000000E+00  0.00000000E+00  0.00000000E+00
  0.00000000E+00  0.00000000E+00  0.00000000E+00
  0.00000000E+00  0.00000000E+00  0.00000000E+00
  0.00000000E+00  0.00000000E+00  0.00000000E+00
  0.00000000E+00  0.00000000E+00  0.00000000E+00
  0.00000000E+00  0.00000000E+00  0.00000000E+00
  0.00000000E+00  0.00000000E+00  0.00000000E+00
  0.00000000E+00  0.00000000E+00  0.00000000E+00
  0.00000000E+00  0.00000000E+00  0.00000000E+00
  0.00000000E+00  0.00000000E+00  0.00000000E+00
  0.00000000E+00  0.00000000E+00  0.00000000E+00
  0.00000000E+00  0.00000000E+00  0.00000000E+00
