Cu 
 1.0000000000000000
    21.9615204888667854    0.0000000000000000    0.0000000000000000
     0.0000000000000000   25.3603150584563188    0.0000000000000000
     0.0000000000000000    0.0000000000000000   24.4996651920358310
 Cu 
  13
Cartesian
 12.7895162165006440 11.1565592386844443 12.9827270226222939
 11.2987949361212525 12.9227738278237734 13.9170190267261251
 11.9526457405854369 12.8376535181222078 11.4491079855419855
 10.4305587698777416 15.2913677789579143 13.8578925131127342
 11.2084208993219114 10.5790471619448496 14.6922652424474443
 11.4024057703894393 13.9725960924535162  9.3786841008992035
 12.5645844343713531 14.7413024386314593 12.8219707822689148
  9.6819908982560747 12.7072383690651929 10.5144608592650357
 10.3656327403288859 11.1641253549171431 12.3829885192016285
  9.0105456647753517 11.5100540503179687 14.4051551176556654
 10.5213700215214683 14.8823975773393293 11.4379241889172718
  9.4341535854763787 13.6768485854243895 15.3435066419419801
  9.1444377307681464 13.3878851944608002 12.8312744350431363
