Al                                      
    1.000000000000000     
    21.4339498231461576    0.0000000000000000    0.0000000000000000
     0.0000000000000000   21.4082816839591175    0.0000000000000000
     0.0000000000000000    0.0000000000000000   21.8408342402429909
   Al
     7
Direct
  0.4301465269229294  0.5035101725112031  0.5782452712646932
  0.4452598511782745  0.5822290457393663  0.4856722196783770
  0.5468715451894159  0.5205147098850456  0.5418977870570577
  0.5585616133319374  0.5864246783481709  0.4423342411059324
  0.4665330639968031  0.5202907547167868  0.3864147059136717
  0.5695456357455089  0.4621832448957796  0.4405582196081568
  0.4562574396282212  0.4425434015508302  0.4758865913794947
 
  0.00000000E+00  0.00000000E+00  0.00000000E+00
  0.00000000E+00  0.00000000E+00  0.00000000E+00
  0.00000000E+00  0.00000000E+00  0.00000000E+00
  0.00000000E+00  0.00000000E+00  0.00000000E+00
  0.00000000E+00  0.00000000E+00  0.00000000E+00
  0.00000000E+00  0.00000000E+00  0.00000000E+00
  0.00000000E+00  0.00000000E+00  0.00000000E+00
