Al 
 1.0000000000000000
    21.4339498231461576    0.0000000000000000    0.0000000000000000
     0.0000000000000000   21.4082816839591175    0.0000000000000000
     0.0000000000000000    0.0000000000000000   21.8408342402429909
 Al 
   7
Cartesian
  9.2081638092421620 10.6465683119538266 12.9113691893053044
  8.9918218814692921 12.2742650474717490 10.7823047024463268
 11.4617943999491025 11.3922606931582031 11.5810475801163655
 12.5871423005723528 12.4494750226271051  9.3718177554290989
 10.2660450775407757 11.4085881040156814  8.5471136011675899
 12.2700000383673871  9.7515500893234162  9.5256165018701289
  9.6589056590664661  9.5259479100953541 10.4695635626587595
