Cu                                      
    1.000000000000000     
    22.4506037110420387    0.0000000000000000    0.0000000000000000
     0.0000000000000000   22.4171597969533671    0.0000000000000000
     0.0000000000000000    0.0000000000000000   25.7423677705557594
   Cu
    13
Direct
  0.4854298019287671  0.5033972958359929  0.4520815081377946
  0.5855629034196744  0.4749460511252823  0.4255519277999989
  0.5716930297434891  0.5750908982406679  0.4623456096729021
  0.4712925366125904  0.6102756741536335  0.4401673379180776
  0.5698686007811024  0.4879736002133896  0.5224104379295066
  0.4947568937938674  0.5766248424268479  0.5318050356467114
  0.4206717599054967  0.5409977590111893  0.3841706104400936
  0.5282274826300710  0.5509537505183618  0.3752576623181967
  0.4016039381827600  0.5490556757288221  0.4909435858542304
  0.4639726101913780  0.4723087238365172  0.5411105836514706
  0.5014414858223063  0.4456918750862626  0.3736615729148680
  0.5291859178946277  0.5192114818094926  0.6041216125399022
  0.5211022037659505  0.4079262554560564  0.4759721192925369
 
  0.00000000E+00  0.00000000E+00  0.00000000E+00
  0.00000000E+00  0.00000000E+00  0.00000000E+00
  0.00000000E+00  0.00000000E+00  0.00000000E+00
  0.00000000E+00  0.00000000E+00  0.00000000E+00
  0.00000000E+00  0.00000000E+00  0.00000000E+00
  0.00000000E+00  0.00000000E+00  0.00000000E+00
  0.00000000E+00  0.00000000E+00  0.00000000E+00
  0.00000000E+00  0.00000000E+00  0.00000000E+00
  0.00000000E+00  0.00000000E+00  0.00000000E+00
  0.00000000E+00  0.00000000E+00  0.00000000E+00
  0.00000000E+00  0.00000000E+00  0.00000000E+00
  0.00000000E+00  0.00000000E+00  0.00000000E+00
  0.00000000E+00  0.00000000E+00  0.00000000E+00
