Cu 
 1.0000000000000000
    22.4506037110420387    0.0000000000000000    0.0000000000000000
     0.0000000000000000   22.4171597969533671    0.0000000000000000
     0.0000000000000000    0.0000000000000000   25.7423677705557594
 Cu 
  13
Cartesian
 11.0426009389177917 11.3907393838264124 11.7475893413243178
 13.2331384119206046 10.6471401259964829 10.9223396347465460
 12.9098426255708159 12.9757841449300635 11.8864571355125239
 10.5820814334725597 13.7677470941626865 11.3110122317697286
 12.8131838375145808 10.9606163946564781 13.3954924682271805
 11.1124893357292205 12.9492606663721155 13.6480147572734776
  9.4532347060055688 11.9445795031454391 10.0437070871769905
 11.8934718506632304 12.3826965243405205  9.6708292566081795
  8.9665222696852691 12.2780781726821111 12.5274497743766684
 10.3398477473694790 10.5445835020294041 13.8845768552402689
 11.1107669798472681  9.9925747319302776  9.8073413259012714
 11.8186406470671219 11.5659876825510501 15.5063406596264670
 11.6590961366851715  9.1191977277820087 12.1521383791030875
