Au                                      
    1.000000000000000     
    23.9048552695546910    0.0000000000000000    0.0000000000000000
     0.0000000000000000   23.0720421930489152    0.0000000000000000
     0.0000000000000000    0.0000000000000000   20.9015040717823588
   Au
     8
Direct
  0.6040969960471955  0.5345755971464097  0.6104735507554730
  0.4310631221096612  0.5130073018566956  0.4888975336100929
  0.5915002150291025  0.3971845682956476  0.4171892044327211
  0.3821652554154180  0.4113275564406863  0.4864623282497249
  0.4372275024828818  0.6262428048718951  0.4861855770855218
  0.5197258528098587  0.5704963620542471  0.5416789928581117
  0.5769496991387691  0.4715749844231462  0.5104798166191982
  0.4885700732561846  0.4145980102050418  0.4568349866846562
 
  0.00000000E+00  0.00000000E+00  0.00000000E+00
  0.00000000E+00  0.00000000E+00  0.00000000E+00
  0.00000000E+00  0.00000000E+00  0.00000000E+00
  0.00000000E+00  0.00000000E+00  0.00000000E+00
  0.00000000E+00  0.00000000E+00  0.00000000E+00
  0.00000000E+00  0.00000000E+00  0.00000000E+00
  0.00000000E+00  0.00000000E+00  0.00000000E+00
  0.00000000E+00  0.00000000E+00  0.00000000E+00
