Au 
 1.0000000000000000
    23.9048552695546910    0.0000000000000000    0.0000000000000000
     0.0000000000000000   23.0720421930489152    0.0000000000000000
     0.0000000000000000    0.0000000000000000   20.9015040717823588
 Au 
   8
Cartesian
 13.1626069523930624 11.0662919704285514 11.8455147794633433
 10.7486258603327816 11.7778405068800804 10.7917386039466496
 14.5089085120896222  9.7298782520408764 10.0961767857413562
  9.5316789648928992  9.7663715377456128  9.8004789777974537
 10.6380575472894012 14.3344531854256552 10.7785661428829602
 12.9771256082021615 13.4991727792536285 10.8367243303086749
 12.8671669105608117 11.4746941956741022  9.1229767000686071
 11.9334420054712300  9.2322375503719840 10.2962588597606040
