Au Cu                                   
    1.000000000000000     
    21.4588230863372722    0.0000000000000000    0.0000000000000000
     0.0000000000000000   20.5916981686864915    0.0000000000000000
     0.0000000000000000    0.0000000000000000   24.2567270011222824
   Au   Cu
     4     4
Direct
  0.4286505020359777  0.5395861226254375  0.4651772202016770
  0.5990195029135449  0.4858034245679899  0.3856579066915876
  0.4017304749115869  0.4548441744913612  0.3767218913643093
  0.5453233608630768  0.5194488669880788  0.6337741493082516
  0.5490731342564168  0.5472351117134198  0.4635737676600045
  0.5002062147535482  0.4448937211273390  0.4347865437137120
  0.4955639640087830  0.5430249836898746  0.5483390358690965
  0.4915075788561211  0.5339873833667053  0.3735222678089406
 
  0.00000000E+00  0.00000000E+00  0.00000000E+00
  0.00000000E+00  0.00000000E+00  0.00000000E+00
  0.00000000E+00  0.00000000E+00  0.00000000E+00
  0.00000000E+00  0.00000000E+00  0.00000000E+00
  0.00000000E+00  0.00000000E+00  0.00000000E+00
  0.00000000E+00  0.00000000E+00  0.00000000E+00
  0.00000000E+00  0.00000000E+00  0.00000000E+00
  0.00000000E+00  0.00000000E+00  0.00000000E+00
