Au Cu 
 1.0000000000000000
    21.4588230863372722    0.0000000000000000    0.0000000000000000
     0.0000000000000000   20.5916981686864915    0.0000000000000000
     0.0000000000000000    0.0000000000000000   24.2567270011222824
 Au  Cu 
   4   4
Cartesian
  9.4137567783087839 10.9518705408741095 11.3209852735281729
 11.8886917482088492  9.8043614973749431  8.9767273932640350
  9.3756179881647626  9.5513857628948973  9.1647083806474576
 11.1217149914706663 11.3363455946078862 15.2049811149353591
 11.9376397942614929 11.1682133429812378 11.0933781918616283
 10.9001303174832547  8.8696786758138355 11.1131585961694892
 10.9782459997909871 10.2363163347452701 13.2374778124145855
 10.4571454552318421 11.8658196065169186  9.1910040253561611
