Cu                                      
    1.000000000000000     
    21.6754941341734053    0.0000000000000000    0.0000000000000000
     0.0000000000000000   24.0826495272945493    0.0000000000000000
     0.0000000000000000    0.0000000000000000   22.3813890908494670
   Cu
    13
Direct
  0.5212144488961427  0.4512233032750858  0.4978424449132946
  0.4278870125934223  0.5073398122870012  0.4927485435233760
  0.5872230650998642  0.5338742339802429  0.5035727142860086
  0.4841311063723088  0.5895683639627245  0.5277833695298675
  0.5076157747125938  0.5537331727217927  0.4291521106620205
  0.5218215365602642  0.5121565166154350  0.5883225719280366
  0.4391004425933759  0.4430592573324362  0.5763922568677200
  0.4712730670078541  0.4609793653716854  0.4008427458492195
  0.5814469040780460  0.4820273531966944  0.4103563003784643
  0.4164800937956052  0.5408678162720885  0.5966808376894339
  0.5709904345495778  0.6271976349282770  0.4730393694359886
  0.5764073980622222  0.6010627886320229  0.5834981520324003
  0.4217069841798003  0.4069291320351576  0.4775766064853435
 
  0.00000000E+00  0.00000000E+00  0.00000000E+00
  0.00000000E+00  0.00000000E+00  0.00000000E+00
  0.00000000E+00  0.00000000E+00  0.00000000E+00
  0.00000000E+00  0.00000000E+00  0.00000000E+00
  0.00000000E+00  0.00000000E+00  0.00000000E+00
  0.00000000E+00  0.00000000E+00  0.00000000E+00
  0.00000000E+00  0.00000000E+00  0.00000000E+00
  0.00000000E+00  0.00000000E+00  0.00000000E+00
  0.00000000E+00  0.00000000E+00  0.00000000E+00
  0.00000000E+00  0.00000000E+00  0.00000000E+00
  0.00000000E+00  0.00000000E+00  0.00000000E+00
  0.00000000E+00  0.00000000E+00  0.00000000E+00
  0.00000000E+00  0.00000000E+00  0.00000000E+00
