Cu 
 1.0000000000000000
    21.6754941341734053    0.0000000000000000    0.0000000000000000
     0.0000000000000000   24.0826495272945493    0.0000000000000000
     0.0000000000000000    0.0000000000000000   22.3813890908494670
 Cu 
  13
Cartesian
 11.3165117896810674 10.9088996502348223 11.1290339985344175
  9.2295776222925170 12.2281639168997298 11.0267082345725598
 12.8603345783460501 12.8297090005204915 11.2525909525634980
 10.4170929357968181 14.2757085311883323 11.8417138446524515
 11.0248930061217436 13.2911088279818337  9.6693130587195970
 11.2906376611152481 12.3764709745774226 13.1292514626952972
  9.5522633453196359 10.6551929227231490 12.9279261613508520
 10.1719524080008483 11.1046538214310146  8.9419030360522811
 12.6014055117927555 11.5107352801314562  9.1415822791830941
  8.9319808690466189 12.9958639089323817 13.3394809582600296
 12.3749464218357446 15.1397881908298455 10.6625128165876166
 12.5535720452783313 14.5018843986249344 13.0138235135727314
  9.1572471362679515  9.7768504684552209 10.6970126421204625
