Pd                                      
    1.000000000000000     
    20.9922378487906585    0.0000000000000000    0.0000000000000000
     0.0000000000000000   20.4232163489084506    0.0000000000000000
     0.0000000000000000    0.0000000000000000   23.6251147274818152
   Pd
     5
Direct
  0.4495453775473547  0.5525723414416808  0.4640840937080382
  0.5639817066671978  0.5073081361684708  0.4866102041151991
  0.4941918381013791  0.4513422892172843  0.4078550276458627
  0.4630403570898752  0.4394098042413827  0.5155803495003437
  0.4902178250339558  0.5488933032460797  0.5692480105978338
 
  0.00000000E+00  0.00000000E+00  0.00000000E+00
  0.00000000E+00  0.00000000E+00  0.00000000E+00
  0.00000000E+00  0.00000000E+00  0.00000000E+00
  0.00000000E+00  0.00000000E+00  0.00000000E+00
  0.00000000E+00  0.00000000E+00  0.00000000E+00
