Pd 
 1.0000000000000000
    20.9922378487906585    0.0000000000000000    0.0000000000000000
     0.0000000000000000   20.4232163489084506    0.0000000000000000
     0.0000000000000000    0.0000000000000000   23.6251147274818152
 Pd 
   5
Cartesian
  9.4562311380874036 10.5348769652200946 10.5290438549920768
 11.5846795676416505  9.2287592401513301 10.9574853350910075
 10.8585574139326919  9.7301277572365077  8.6692602700200911
 10.1826606794112973 10.0229957975061446 12.9322402310578646
  9.5792879177546180 11.5315979407135565 14.6370484529348275
