Au                                      
    1.000000000000000     
    21.6172085722344427    0.0000000000000000    0.0000000000000000
     0.0000000000000000   22.6570251115349528    0.0000000000000000
     0.0000000000000000    0.0000000000000000   22.7111264178274759
   Au
     8
Direct
  0.4264144718503759  0.4916011365069483  0.5683115856609029
  0.4920743508637092  0.5232539107008399  0.3784674879912763
  0.6011068612938022  0.4917900197166072  0.4482620695205070
  0.4864969289105647  0.4462802372416711  0.4695119252677205
  0.5444466457961503  0.5397434855127329  0.5379855195409264
  0.4321582467191857  0.5663380765957254  0.4689721715895989
  0.4513092742971821  0.6063226033957929  0.5808843745424177
  0.4196663222129627  0.3796901480739197  0.5408418640710501
 
  0.00000000E+00  0.00000000E+00  0.00000000E+00
  0.00000000E+00  0.00000000E+00  0.00000000E+00
  0.00000000E+00  0.00000000E+00  0.00000000E+00
  0.00000000E+00  0.00000000E+00  0.00000000E+00
  0.00000000E+00  0.00000000E+00  0.00000000E+00
  0.00000000E+00  0.00000000E+00  0.00000000E+00
  0.00000000E+00  0.00000000E+00  0.00000000E+00
  0.00000000E+00  0.00000000E+00  0.00000000E+00
