Au 
 1.0000000000000000
    21.6172085722344427    0.0000000000000000    0.0000000000000000
     0.0000000000000000   22.6570251115349528    0.0000000000000000
     0.0000000000000000    0.0000000000000000   22.7111264178274759
 Au 
   8
Cartesian
  9.9244855377461434 11.1508924069913959 11.9938970659606916
 10.2450591119544523 11.5431966592145319  9.3050641717119440
 12.3562865270134505 10.9966488970192611 10.7250722159586775
 10.5982516682269967  9.0916770178639261 10.2299676386320897
 11.8361761206966687 13.1158218379240665 12.1496165959365516
  9.6495295087506605 13.6089668913792146 10.7751673261693632
  9.5740841684978051 13.4345724549059664 13.3314686837410914
  9.1217825710454363  8.7063348905844791 12.1806565840014347
