Pd                                      
    1.000000000000000     
    23.6828774060135316    0.0000000000000000    0.0000000000000000
     0.0000000000000000   23.9854844216309537    0.0000000000000000
     0.0000000000000000    0.0000000000000000   25.2550817831677108
   Pd
    16
Direct
  0.3801316549696638  0.5064219088967102  0.4437566332301541
  0.4320523813071085  0.5803189260572500  0.5102439354015533
  0.4728316493270249  0.5601496356955764  0.4090622913594643
  0.5618811450939539  0.5685320521401679  0.4750598871734187
  0.3785724969420056  0.4852762060070648  0.5474485833127249
  0.4591370605785888  0.4484598168926384  0.3909083821114754
  0.4572625853357379  0.5333097621925278  0.6060979139401917
  0.5231543622070410  0.6108888208010467  0.5634045239522013
  0.4868563584237319  0.4916051844591728  0.4916400894978577
  0.5628687878077154  0.4903123818975562  0.3997060030254632
  0.5582231239643647  0.5062189571096053  0.5702785326651242
  0.4158717993657475  0.4049135951304836  0.4802022228328021
  0.4706106602256785  0.4259544214886372  0.5718760869002455
  0.6181146228350812  0.4702625097466649  0.4889559854365040
  0.5313056742181526  0.4003454649341249  0.4622856986038992
  0.5763946932306643  0.3979971622103834  0.5582922390710865
 
  0.00000000E+00  0.00000000E+00  0.00000000E+00
  0.00000000E+00  0.00000000E+00  0.00000000E+00
  0.00000000E+00  0.00000000E+00  0.00000000E+00
  0.00000000E+00  0.00000000E+00  0.00000000E+00
  0.00000000E+00  0.00000000E+00  0.00000000E+00
  0.00000000E+00  0.00000000E+00  0.00000000E+00
  0.00000000E+00  0.00000000E+00  0.00000000E+00
  0.00000000E+00  0.00000000E+00  0.00000000E+00
  0.00000000E+00  0.00000000E+00  0.00000000E+00
  0.00000000E+00  0.00000000E+00  0.00000000E+00
  0.00000000E+00  0.00000000E+00  0.00000000E+00
  0.00000000E+00  0.00000000E+00  0.00000000E+00
  0.00000000E+00  0.00000000E+00  0.00000000E+00
  0.00000000E+00  0.00000000E+00  0.00000000E+00
  0.00000000E+00  0.00000000E+00  0.00000000E+00
  0.00000000E+00  0.00000000E+00  0.00000000E+00
