Pd 
 1.0000000000000000
    23.6828774060135316    0.0000000000000000    0.0000000000000000
     0.0000000000000000   23.9854844216309537    0.0000000000000000
     0.0000000000000000    0.0000000000000000   25.2550817831677108
 Pd 
  16
Cartesian
  9.0010385460945557 12.1476614140989749 11.2078549218328440
 10.2261184772815046 13.9219591922838006 12.8847500051261399
 11.1986909181359255 13.4287460247188530 10.3337338872297479
 13.3158805058845946 13.6388788040467901 12.0007741213023316
  8.9640671441080961 11.6360394234387527 13.8206369239825051
 10.8727820652093037 10.7589485856397538  9.8751869950925979
 10.8279690155147090 12.7905701714921278 15.3055856276752138
 12.3904554006172809 14.6508692357231105 14.2265287382799386
 11.5334140656226065 11.7927103768779986 12.4194597734396126
 13.3268620772301283 11.7581032024979137 10.0897476208627808
 13.2246292431712913 12.1447715449547697 14.4076958443298544
  9.8517759432580725  9.7194651763530580 12.1255045313400771
 11.1443287168280669 10.2134468236563034 14.4467497970946894
 14.6307975025049473 11.2820871489597199 12.3428343468793038
 12.5867619151932022  9.5992188068845845 11.6731205566352845
 13.6502888260531918  9.5453306129130393 14.1031141168972454
