Ni Pd                                   
    1.000000000000000     
    23.8652992577844998    0.0000000000000000    0.0000000000000000
     0.0000000000000000   22.3173070002723719    0.0000000000000000
     0.0000000000000000    0.0000000000000000   22.7798048500516508
   Ni   Pd
     6     4
Direct
  0.4588373526342011  0.4808776282025922  0.5539222188455739
  0.5296701104527481  0.4115604312973883  0.5431447469335822
  0.4974950512170782  0.5789673679933146  0.5280183293268205
  0.5330741748808249  0.4871383727433745  0.4748532139130734
  0.5898379180338396  0.5650019872604193  0.5027300969404318
  0.4399040075156846  0.5250634438796709  0.4605364511793241
  0.5598240420961770  0.5062294135395045  0.5881995731391058
  0.4556869259108209  0.4119963007193289  0.4675641146848560
  0.3977998408940633  0.5680483167307563  0.5479173827603937
  0.5237995399262523  0.5846956941829341  0.4220303458956978
 
  0.00000000E+00  0.00000000E+00  0.00000000E+00
  0.00000000E+00  0.00000000E+00  0.00000000E+00
  0.00000000E+00  0.00000000E+00  0.00000000E+00
  0.00000000E+00  0.00000000E+00  0.00000000E+00
  0.00000000E+00  0.00000000E+00  0.00000000E+00
  0.00000000E+00  0.00000000E+00  0.00000000E+00
  0.00000000E+00  0.00000000E+00  0.00000000E+00
  0.00000000E+00  0.00000000E+00  0.00000000E+00
  0.00000000E+00  0.00000000E+00  0.00000000E+00
  0.00000000E+00  0.00000000E+00  0.00000000E+00
