Ni Pd 
 1.0000000000000000
    23.8652992577844998    0.0000000000000000    0.0000000000000000
     0.0000000000000000   22.3173070002723719    0.0000000000000000
     0.0000000000000000    0.0000000000000000   22.7798048500516508
 Ni  Pd 
   6   4
Cartesian
 10.9387102012321940 10.7500823712768128 12.6739856404474445
 12.6399999885290999  9.0095911957708115 12.4243223258740176
 11.8635781794923343 12.9486231584132465 12.0844456253870991
 12.7362522616464364 10.8758669336135547 10.8558651134756357
 14.2020884236872327 12.7360055491883806 11.4251442850076455
 10.4769108886284297 11.7081181290331298 10.4098808118024255
 13.3440133069683053 11.2606533390608128 13.2547427750514935
 10.8698519196259689  9.2400011037705205 10.7096719051989524
  9.4451845031725199 12.6821468078196649 12.4090524660868020
 12.4740971204728321 13.0441266974973598  9.6774132189191739
