Au Cu                                   
    1.000000000000000     
    23.0806997426224783    0.0000000000000000    0.0000000000000000
     0.0000000000000000   22.5972959667276427    0.0000000000000000
     0.0000000000000000    0.0000000000000000   22.8201172172789022
   Au   Cu
     4     4
Direct
  0.4311287719804585  0.4514427604592119  0.4180251335295766
  0.5985900977563103  0.4532952620147239  0.5078186795794787
  0.5522382371083110  0.4750012705677027  0.3985102469770856
  0.5113386145256033  0.4741900397699813  0.5872080359288890
  0.5102918587803222  0.5273503090451616  0.4835776145764148
  0.4983475036939178  0.4129077004943251  0.4931221353417055
  0.4629427796860163  0.5750248572100035  0.5629104555524925
  0.4211048869660692  0.4867517889189888  0.5213864839956975
 
  0.00000000E+00  0.00000000E+00  0.00000000E+00
  0.00000000E+00  0.00000000E+00  0.00000000E+00
  0.00000000E+00  0.00000000E+00  0.00000000E+00
  0.00000000E+00  0.00000000E+00  0.00000000E+00
  0.00000000E+00  0.00000000E+00  0.00000000E+00
  0.00000000E+00  0.00000000E+00  0.00000000E+00
  0.00000000E+00  0.00000000E+00  0.00000000E+00
  0.00000000E+00  0.00000000E+00  0.00000000E+00
