Au Cu 
 1.0000000000000000
    23.0806997426224783    0.0000000000000000    0.0000000000000000
     0.0000000000000000   22.5972959667276427    0.0000000000000000
     0.0000000000000000    0.0000000000000000   22.8201172172789022
 Au  Cu 
   4   4
Cartesian
 10.1754181363763063 10.5762153695468832  9.4946498252836413
 13.7540044618791004 10.4961821497402923 11.5341960282644660
 12.6838005885884701 10.3083702022140695  9.2048443129994588
 11.8845532135819578 10.7828158185667426 13.2752417117364985
 11.7205629511771932 11.9418985653698826 10.9638824360573093
 11.4954794407517085  9.2854099574547373 11.2368832676540755
 10.6229142623236346 12.8791014335286462 12.9869650171549793
  9.6625379888157230 10.8643659883070747 11.9575945380648694
