Ni Pd                                   
    1.000000000000000     
    21.0800591662076684    0.0000000000000000    0.0000000000000000
     0.0000000000000000   22.2941819475121079    0.0000000000000000
     0.0000000000000000    0.0000000000000000   25.3366283309384777
   Ni   Pd
     6     4
Direct
  0.5466438680711357  0.5401499811903767  0.5168073204252378
  0.5750031744949594  0.4965662372872898  0.4362454629227595
  0.5230299963562983  0.5863151344377525  0.4337721399347821
  0.4687714387745073  0.4988788445975771  0.4625137521798858
  0.4002809207615776  0.4981856952620017  0.5356795329336760
  0.4976011947430712  0.4482879227465563  0.5404307708431031
  0.4446994139082651  0.5968099678726826  0.5090553439163280
  0.6127630868389600  0.4464005265958918  0.5183513947131799
  0.4790586251068297  0.5348110276704281  0.5987650042040353
  0.5230859445225453  0.3986493047648844  0.4558125945461193
 
  0.00000000E+00  0.00000000E+00  0.00000000E+00
  0.00000000E+00  0.00000000E+00  0.00000000E+00
  0.00000000E+00  0.00000000E+00  0.00000000E+00
  0.00000000E+00  0.00000000E+00  0.00000000E+00
  0.00000000E+00  0.00000000E+00  0.00000000E+00
  0.00000000E+00  0.00000000E+00  0.00000000E+00
  0.00000000E+00  0.00000000E+00  0.00000000E+00
  0.00000000E+00  0.00000000E+00  0.00000000E+00
  0.00000000E+00  0.00000000E+00  0.00000000E+00
  0.00000000E+00  0.00000000E+00  0.00000000E+00
