Ni Pd 
 1.0000000000000000
    21.0800591662076684    0.0000000000000000    0.0000000000000000
     0.0000000000000000   22.2941819475121079    0.0000000000000000
     0.0000000000000000    0.0000000000000000   25.3366283309384777
 Ni  Pd 
   6   4
Cartesian
 11.5228855459153792 12.0411536473911926 13.0927724493887592
 12.1219050306909271 11.0675102912824226 11.0524822106669554
 11.0233558453567770 13.0714837500889409 10.9915654619993397
  9.8823718733645318 11.1263020418055625 11.7200346580607331
  8.4372100971310129 11.1067410603190186 13.5700144910212828
 10.4906873738934188  9.9944820108190129 13.6915723351680221
  9.3749118080423770 13.3047639563149644 12.8982871215221770
 12.9156180500457456  9.9530213741010574 13.1326649805537912
 10.0990135462253754 11.9237709303706296 15.1717106873602088
 11.0277068057127394  8.8861370708804017 11.5503724393955984
