Au Cu                                   
    1.000000000000000     
    23.7834187416587142    0.0000000000000000    0.0000000000000000
     0.0000000000000000   21.6390909155938331    0.0000000000000000
     0.0000000000000000    0.0000000000000000   21.1391308562127698
   Au   Cu
     4     4
Direct
  0.4639359994284307  0.5482493292136512  0.4862421405511271
  0.5836924714547871  0.4184658486051098  0.5509021332531354
  0.6019779922741241  0.4366047616114600  0.4180697141011763
  0.4079711696606024  0.4359189904840435  0.4307609170063251
  0.5137012497149617  0.4985477750030352  0.5803514674712885
  0.5663842095448360  0.5246086305199331  0.4831261680732955
  0.4315276872412676  0.4449488337019305  0.5448804353498304
  0.5062801956680607  0.4327999392311523  0.4703711531494600
 
  0.00000000E+00  0.00000000E+00  0.00000000E+00
  0.00000000E+00  0.00000000E+00  0.00000000E+00
  0.00000000E+00  0.00000000E+00  0.00000000E+00
  0.00000000E+00  0.00000000E+00  0.00000000E+00
  0.00000000E+00  0.00000000E+00  0.00000000E+00
  0.00000000E+00  0.00000000E+00  0.00000000E+00
  0.00000000E+00  0.00000000E+00  0.00000000E+00
  0.00000000E+00  0.00000000E+00  0.00000000E+00
