Au Cu 
 1.0000000000000000
    22.4907907787714265    0.0000000000000000    0.0000000000000000
     0.0000000000000000   23.8252690462933749    0.0000000000000000
     0.0000000000000000    0.0000000000000000   24.4757229514244585
 Au  Cu 
   4   4
Cartesian
 10.5901675253703011 14.0446063064107136 11.0376768854697875
 12.0606602623987555 10.7261689914339566 12.3647341905170141
 11.9106860775285650 12.0922764035162533 10.1429835248943103
 12.2411311145788115 12.0109125132282077 14.5615546993618672
 10.3839420638673250 13.2785475714372900 13.4460741042970202
  9.8282204092482086 11.6982531590945378 11.5895377180994910
 10.0787176666397702 10.8697579563379296 13.9620988359017169
 12.6249282781594783 13.2288281531254999 12.3461061660958595
