Cu                                      
    1.000000000000000     
    23.0117808959008094    0.0000000000000000    0.0000000000000000
     0.0000000000000000   25.0820389024481329    0.0000000000000000
     0.0000000000000000    0.0000000000000000   26.9621859710253347
   Cu
    13
Direct
  0.5695977609200616  0.5557958095814397  0.5296187742933999
  0.5432543800382689  0.5264582191811159  0.4469460234069331
  0.5149762236958360  0.4956092631057678  0.3649094184868636
  0.4421734993312116  0.5128875982104415  0.4291852586426592
  0.4683912625318667  0.5296824840593733  0.5151024249067969
  0.5638726717228395  0.4594585557406311  0.5142770386150083
  0.4861137266176089  0.4595387362283322  0.5763457421933481
  0.5970733193730792  0.5866493989288127  0.6090662831390302
  0.5499591971093580  0.4331785312739505  0.4280953037969272
  0.4660171199705446  0.4377824483530373  0.4862639313181238
  0.4994235790929643  0.5522718648735295  0.5987353604801210
  0.5822200942178449  0.4916357396165496  0.5980501085194888
  0.4526015027559052  0.4241822574467938  0.3992819607853825
 
  0.00000000E+00  0.00000000E+00  0.00000000E+00
  0.00000000E+00  0.00000000E+00  0.00000000E+00
  0.00000000E+00  0.00000000E+00  0.00000000E+00
  0.00000000E+00  0.00000000E+00  0.00000000E+00
  0.00000000E+00  0.00000000E+00  0.00000000E+00
  0.00000000E+00  0.00000000E+00  0.00000000E+00
  0.00000000E+00  0.00000000E+00  0.00000000E+00
  0.00000000E+00  0.00000000E+00  0.00000000E+00
  0.00000000E+00  0.00000000E+00  0.00000000E+00
  0.00000000E+00  0.00000000E+00  0.00000000E+00
  0.00000000E+00  0.00000000E+00  0.00000000E+00
  0.00000000E+00  0.00000000E+00  0.00000000E+00
  0.00000000E+00  0.00000000E+00  0.00000000E+00
