Cu 
 1.0000000000000000
    23.0117808959008094    0.0000000000000000    0.0000000000000000
     0.0000000000000000   25.0820389024481329    0.0000000000000000
     0.0000000000000000    0.0000000000000000   26.9621859710253347
 Cu 
  13
Cartesian
 13.1078838705120937 13.9413693489740123 14.2816269338399895
 12.5002825161806577 13.2043856562571449 12.0482898197803987
 11.8510430603363446 12.4308570415188360  9.8389633166444632
 10.1746612183580556 12.8649494667871700 11.5705567991207090
 10.7793468384368261 13.2857425313673740 13.8870290759120625
 12.9755264948664362 11.5246122754848717 13.8670424277570330
 11.1854872826125042 11.5247803215141307 15.5406595829794512
 13.7378532040910493 14.7135129694829452 16.4218108656258011
 12.6564085979120051 10.8650020138469809 11.5416722534219360
 10.7242913133886173 10.9809689392441410 13.1097618588276461
 11.4937542327798514 13.8532935744383003 16.1440379460275132
 13.3992018754237492 12.3310124228724316 16.1244560178027854
 10.4141215329721994 10.6381783469671056 10.7671537691671144
