Ni Pd                                   
    1.000000000000000     
    22.7018990307385700    0.0000000000000000    0.0000000000000000
     0.0000000000000000   22.0996654315800498    0.0000000000000000
     0.0000000000000000    0.0000000000000000   22.5884460449028523
   Ni   Pd
     6     4
Direct
  0.5533011500336327  0.4925608233824684  0.4871756126139681
  0.4968535932155519  0.4558367213062057  0.4071819192023460
  0.5676124103927848  0.5358627093735021  0.3942816762068660
  0.4771673308968296  0.5531562217036483  0.4436274569212233
  0.5627026827436020  0.5965462109804939  0.4784901621308912
  0.5032513572077837  0.4542622736055206  0.5673453562245606
  0.5206931701433478  0.3822506894775252  0.4867856203947062
  0.6029132295455817  0.4309727979897267  0.4071442394698616
  0.4268340287058244  0.4658384111057817  0.4933115624280768
  0.4864242081386599  0.5630761369763326  0.5533242871650869
 
  0.00000000E+00  0.00000000E+00  0.00000000E+00
  0.00000000E+00  0.00000000E+00  0.00000000E+00
  0.00000000E+00  0.00000000E+00  0.00000000E+00
  0.00000000E+00  0.00000000E+00  0.00000000E+00
  0.00000000E+00  0.00000000E+00  0.00000000E+00
  0.00000000E+00  0.00000000E+00  0.00000000E+00
  0.00000000E+00  0.00000000E+00  0.00000000E+00
  0.00000000E+00  0.00000000E+00  0.00000000E+00
  0.00000000E+00  0.00000000E+00  0.00000000E+00
  0.00000000E+00  0.00000000E+00  0.00000000E+00
