Ni Pd 
 1.0000000000000000
    22.7018990307385700    0.0000000000000000    0.0000000000000000
     0.0000000000000000   22.0996654315800498    0.0000000000000000
     0.0000000000000000    0.0000000000000000   22.5884460449028523
 Ni  Pd 
   6   4
Cartesian
 12.4894407083206964 10.8882342877186460 11.0403693005273755
 11.2153430746170617 10.0814550401926546  9.0234362235258043
 12.9440442306599177 11.8333798539899409  8.8560766311825141
 10.7523289451138897 12.3280849080901369  9.9102097866273038
 12.7507125204503478 13.2832903521062455 10.8440647299603850
 11.5129175256381000  9.9233181728375559 13.0338452133161624
 11.7838219216771112  8.5020248662192319 10.9321250554081413
 13.5867211059451325  9.4545702743097113  9.3473648669132530
  9.9289509357232308 10.3229893458831050 11.1790335637346914
 11.0345864801143776 12.3420255643121521 12.4208497281747405
