Cu                                      
    1.000000000000000     
    24.3490075918123523    0.0000000000000000    0.0000000000000000
     0.0000000000000000   22.7753877495355184    0.0000000000000000
     0.0000000000000000    0.0000000000000000   22.1780043787331103
   Cu
    13
Direct
  0.5134006381984354  0.5457229992946920  0.5112712648946905
  0.4657761033745412  0.4521235588316713  0.5179552339158624
  0.5156292734455624  0.4601374650939515  0.4187224196213112
  0.6081849352193752  0.5082568055308317  0.5125539149723030
  0.5415726153540404  0.4785960650888759  0.5909369052945813
  0.5701312953190785  0.5466183322508987  0.4192177678180913
  0.4168227604739869  0.4721350536084289  0.4244216727488437
  0.5612651662943569  0.4177255431556497  0.5038766033839162
  0.4502504086232273  0.5228846098243994  0.5976838098422925
  0.4102158550614493  0.5448627660358536  0.5022772438161298
  0.6163483332784139  0.4513898770021528  0.4183784858073146
  0.4716337316789672  0.5592402571929994  0.4103755425009770
  0.3733524478350185  0.5647036200371143  0.4034444692401656
 
  0.00000000E+00  0.00000000E+00  0.00000000E+00
  0.00000000E+00  0.00000000E+00  0.00000000E+00
  0.00000000E+00  0.00000000E+00  0.00000000E+00
  0.00000000E+00  0.00000000E+00  0.00000000E+00
  0.00000000E+00  0.00000000E+00  0.00000000E+00
  0.00000000E+00  0.00000000E+00  0.00000000E+00
  0.00000000E+00  0.00000000E+00  0.00000000E+00
  0.00000000E+00  0.00000000E+00  0.00000000E+00
  0.00000000E+00  0.00000000E+00  0.00000000E+00
  0.00000000E+00  0.00000000E+00  0.00000000E+00
  0.00000000E+00  0.00000000E+00  0.00000000E+00
  0.00000000E+00  0.00000000E+00  0.00000000E+00
  0.00000000E+00  0.00000000E+00  0.00000000E+00
