Cu 
 1.0000000000000000
    24.3490075918123523    0.0000000000000000    0.0000000000000000
     0.0000000000000000   22.7753877495355184    0.0000000000000000
     0.0000000000000000    0.0000000000000000   22.1780043787331103
 Cu 
  13
Cartesian
 12.5019987001781328 12.4292061681660364 11.3392410316058179
 11.3410885362486145 10.2984028008865458 11.4881656036162152
 12.5552897135445178 10.4799813651256581  9.2863747184193670
 14.8089917428261195 11.5761267161725669 11.3664533055857593
 13.1871584791334175 10.9007507523701612 13.1055567267421900
 13.8811768397566144 12.4496232184718867  9.2988778019442719
 10.1488837893635946 10.7523580390423632  9.4128024614635848
 13.6654993420154902  9.5128696986466501 11.1749584118826242
 10.9629022962767060 11.9088628581197860 13.2538263679940389
  9.9881623365959786 12.4099287851850999 11.1405271305146290
 15.0077020171225950 10.2794383129793783  9.2785084565624274
 11.4832576838979499 12.7367256886752180  9.1007779946517147
  9.0915331841817313 12.8613960314267910  8.9476331476772852
