Cu                                      
    1.000000000000000     
    23.3801482946521411    0.0000000000000000    0.0000000000000000
     0.0000000000000000   25.2063727479911037    0.0000000000000000
     0.0000000000000000    0.0000000000000000   22.4361842001022254
   Cu
    13
Direct
  0.4089330842092512  0.4850802212800348  0.4975061599773330
  0.5584946256256134  0.5879965802439402  0.5203542111005088
  0.4699994354969765  0.6288056898884811  0.5468959969759131
  0.4779172526135904  0.5338076170013440  0.5644463070260156
  0.5773344552299975  0.5036216219528469  0.5650694742722876
  0.6091528449596239  0.4331223072657205  0.5017007837206403
  0.4721186530048326  0.5637569446246543  0.4627928236385802
  0.4354453795622260  0.3985191992785032  0.4552601018384190
  0.5603767878452447  0.5078910026853090  0.4569191401402511
  0.5380622057341838  0.4085405823800837  0.4295920205878678
  0.3882741823325127  0.5743595796736952  0.5255412652189814
  0.5029600437828465  0.4471678157348538  0.5196156233722866
  0.4710194762978947  0.4795518438016677  0.4125804455523029
 
  0.00000000E+00  0.00000000E+00  0.00000000E+00
  0.00000000E+00  0.00000000E+00  0.00000000E+00
  0.00000000E+00  0.00000000E+00  0.00000000E+00
  0.00000000E+00  0.00000000E+00  0.00000000E+00
  0.00000000E+00  0.00000000E+00  0.00000000E+00
  0.00000000E+00  0.00000000E+00  0.00000000E+00
  0.00000000E+00  0.00000000E+00  0.00000000E+00
  0.00000000E+00  0.00000000E+00  0.00000000E+00
  0.00000000E+00  0.00000000E+00  0.00000000E+00
  0.00000000E+00  0.00000000E+00  0.00000000E+00
  0.00000000E+00  0.00000000E+00  0.00000000E+00
  0.00000000E+00  0.00000000E+00  0.00000000E+00
  0.00000000E+00  0.00000000E+00  0.00000000E+00
