Cu 
 1.0000000000000000
    23.3801482946521411    0.0000000000000000    0.0000000000000000
     0.0000000000000000   25.2063727479911037    0.0000000000000000
     0.0000000000000000    0.0000000000000000   22.4361842001022254
 Cu 
  13
Cartesian
  9.5629101389554112 12.2257362441790107 11.1615667042317988
 13.0579782948682528 14.8232169918901562 11.6737070477830649
 10.9894646323289429 15.8506627729640783 12.2706309641589684
 11.1741928151649113 13.4542518687883543 12.6650258322448757
 13.4972178358212336 12.6973840894614245 12.6804212915365717
 14.2412018210931919 10.9162649118173096 11.2575408109518040
 11.0353800292497510 14.2109090197171977 10.3824088389771809
 10.1799309711103785 10.0453892315308035 10.2120340623345154
 13.1020865067663745 12.8027337292157171 10.2497784144922370
 12.5787390326180653 10.2961215981368213  9.6382536188231214
  9.0800326032558747 14.4771706175142114 11.7920995869952687
 11.7590402701625489 11.2720707580432347 11.6597058361606436
 11.0134519442417957 12.0858131664343063  9.2558599994685924
