Pd                                      
    1.000000000000000     
    23.0672533604460988    0.0000000000000000    0.0000000000000000
     0.0000000000000000   24.1005971876554241    0.0000000000000000
     0.0000000000000000    0.0000000000000000   24.0614549728603997
   Pd
    16
Direct
  0.4345759126772941  0.4332827345537014  0.4767931034852529
  0.6065092055921694  0.5691106560230453  0.4945236144596659
  0.5997688265677892  0.4626295970515101  0.4642586143280316
  0.4258767019373189  0.5040494262680528  0.5638585069531491
  0.5819136659481950  0.5450655109274647  0.3873164254869588
  0.5336303060092539  0.5529177171603160  0.5779642236152354
  0.3895284389854464  0.5374653119264208  0.4609487798010929
  0.4399318880455528  0.5900463129853115  0.6271870887091067
  0.5105475967274510  0.4538877720921664  0.3909183360177275
  0.4637497978764906  0.5569908465853669  0.3773111307180070
  0.5263979595166330  0.4452758788781003  0.5490474913530953
  0.5026418295716828  0.5219798610437278  0.4744467781666803
  0.5250028154996850  0.6270778435913582  0.4400295757383330
  0.5309593376866196  0.3740885729336719  0.4654941272750465
  0.3967782330382353  0.4668393485049103  0.3775776697879759
  0.4504299132894543  0.6101387024626332  0.5212878490241466
 
  0.00000000E+00  0.00000000E+00  0.00000000E+00
  0.00000000E+00  0.00000000E+00  0.00000000E+00
  0.00000000E+00  0.00000000E+00  0.00000000E+00
  0.00000000E+00  0.00000000E+00  0.00000000E+00
  0.00000000E+00  0.00000000E+00  0.00000000E+00
  0.00000000E+00  0.00000000E+00  0.00000000E+00
  0.00000000E+00  0.00000000E+00  0.00000000E+00
  0.00000000E+00  0.00000000E+00  0.00000000E+00
  0.00000000E+00  0.00000000E+00  0.00000000E+00
  0.00000000E+00  0.00000000E+00  0.00000000E+00
  0.00000000E+00  0.00000000E+00  0.00000000E+00
  0.00000000E+00  0.00000000E+00  0.00000000E+00
  0.00000000E+00  0.00000000E+00  0.00000000E+00
  0.00000000E+00  0.00000000E+00  0.00000000E+00
  0.00000000E+00  0.00000000E+00  0.00000000E+00
  0.00000000E+00  0.00000000E+00  0.00000000E+00
