Pd 
 1.0000000000000000
    23.0672533604460988    0.0000000000000000    0.0000000000000000
     0.0000000000000000   24.1005971876554241    0.0000000000000000
     0.0000000000000000    0.0000000000000000   24.0614549728603997
 Pd 
  16
Cartesian
 10.0478865695572050 10.4557973262558193 11.4685861654508958
 13.9410684492019641 13.6692958592043521 11.9018518560348792
 13.8142597255426764 11.1537370410227883 11.1403798489774086
  9.9070721358941398 12.1811854102944430 13.4947369468230054
 13.3193426091057265 13.0820896672266116  9.4057976255717133
 12.2672531214339440 13.3435065751442590 13.8975570593423612
  9.0001671160424586 12.9450224083051957 11.1064384550478561
 10.1408650215565235 14.2016725786455620 15.0322105963647985
 11.7717890505068414 10.9185384496818969  9.3764911646458735
 10.7009532151501006 13.4152042729340906  9.0959115755362561
 12.1539840635597969 10.7573926847227490 13.1953330430161007
 11.5967902303992147 12.5889888674010422 11.4195556334681747
 12.1272383387417957 15.0518243785343753 10.6202380091579691
 12.2458845664159064  9.1137330724541155 11.1966376806200234
  9.2195791714220476 11.2925677533755451  9.1471911828197072
 10.3979708939377584 14.6797617992356795 12.5462695481198097
