Cu                                      
    1.000000000000000     
    25.7831587857665525    0.0000000000000000    0.0000000000000000
     0.0000000000000000   23.3899205365993197    0.0000000000000000
     0.0000000000000000    0.0000000000000000   22.7387562721706722
   Cu
    13
Direct
  0.5485654812595775  0.5859074034538664  0.5093504336495831
  0.4893859062634037  0.4945232561458827  0.5086641535743692
  0.4839571041485536  0.5751990667211494  0.5904836272424161
  0.5724014228886031  0.6170826137859527  0.6035928764927604
  0.5624298879407151  0.5125899609113842  0.5908006426223321
  0.4074875981746819  0.5180285617889416  0.5556111725290166
  0.4751142626062304  0.4750138247940101  0.6153099130250518
  0.5853847207481467  0.4887918518281166  0.4911708396845194
  0.4372685510167180  0.4148033839208848  0.5419062910109897
  0.5341216406957550  0.4174859055876553  0.5523296948728380
  0.4527375518378566  0.5856256668841014  0.4899485588511302
  0.6347208431591425  0.5612156963423039  0.5430639273024194
  0.5244573291519095  0.5417339762382951  0.4213876534588717
 
  0.00000000E+00  0.00000000E+00  0.00000000E+00
  0.00000000E+00  0.00000000E+00  0.00000000E+00
  0.00000000E+00  0.00000000E+00  0.00000000E+00
  0.00000000E+00  0.00000000E+00  0.00000000E+00
  0.00000000E+00  0.00000000E+00  0.00000000E+00
  0.00000000E+00  0.00000000E+00  0.00000000E+00
  0.00000000E+00  0.00000000E+00  0.00000000E+00
  0.00000000E+00  0.00000000E+00  0.00000000E+00
  0.00000000E+00  0.00000000E+00  0.00000000E+00
  0.00000000E+00  0.00000000E+00  0.00000000E+00
  0.00000000E+00  0.00000000E+00  0.00000000E+00
  0.00000000E+00  0.00000000E+00  0.00000000E+00
  0.00000000E+00  0.00000000E+00  0.00000000E+00
