Cu 
 1.0000000000000000
    25.7831587857665525    0.0000000000000000    0.0000000000000000
     0.0000000000000000   23.3899205365993197    0.0000000000000000
     0.0000000000000000    0.0000000000000000   22.7387562721706722
 Cu 
  13
Cartesian
 14.1302731929307530 13.7462986730209007 11.5570505578401015
 12.7002053398463453 11.6349299575488008 11.6429249784464037
 12.4648110462793564 13.4807823150900248 13.3958236206050412
 14.7776794564707021 14.3560882807037729 13.8233966191319535
 14.4794104707902100 11.9581954983763978 13.4403741860654247
 10.5300919620553568 12.1162723755902935 12.5931129744658801
 12.2502324401525033 11.0828415311967206 14.0832265801780352
 15.0666131274801138 11.4440939028186044 11.0735030702715154
 11.3179633353407212  9.7473353757044325 12.2927207642046685
 13.8067124384835775  9.7290609379697557 12.6107341691856139
 11.6911268214736186 13.7526858842272954 11.0344372911869222
 16.3470010696153665 13.1204154743355534 12.3836363345711415
 13.3921412272294642 12.6018077246962132  9.5500497150898376
