Pd                                      
    1.000000000000000     
    25.5211374544436715    0.0000000000000000    0.0000000000000000
     0.0000000000000000   25.8513665647402959    0.0000000000000000
     0.0000000000000000    0.0000000000000000   21.9630757401223633
   Pd
    16
Direct
  0.4701171856763671  0.4809952692993109  0.5399538005826117
  0.5087094558629892  0.5751916640879992  0.5321463601762818
  0.3733818348974929  0.4736240969063377  0.5013926379061369
  0.5367450950756172  0.4998773414476684  0.4344549347801598
  0.4533752650177336  0.4380316387530087  0.4179894459911742
  0.6046357796791553  0.5634216082842349  0.4838118580002903
  0.4431015301658484  0.5393304461800443  0.4352941300528240
  0.3669284490833816  0.4873847721766932  0.3831259624622354
  0.5331987765698279  0.4109616189885851  0.4949275366409900
  0.3470637528641971  0.5683588394879272  0.4620405903896816
  0.6250397847040545  0.4598033419841823  0.4725243271816579
  0.5238838966652801  0.6022606521475352  0.4167093625714325
  0.4337177831047013  0.6329721021061350  0.4782018037113711
  0.5698645155378285  0.4944010891770078  0.5650140290170987
  0.4075170562394151  0.5613780524565138  0.5610330487006920
  0.4321509939429729  0.3887424379263182  0.5196521404755328
 
  0.00000000E+00  0.00000000E+00  0.00000000E+00
  0.00000000E+00  0.00000000E+00  0.00000000E+00
  0.00000000E+00  0.00000000E+00  0.00000000E+00
  0.00000000E+00  0.00000000E+00  0.00000000E+00
  0.00000000E+00  0.00000000E+00  0.00000000E+00
  0.00000000E+00  0.00000000E+00  0.00000000E+00
  0.00000000E+00  0.00000000E+00  0.00000000E+00
  0.00000000E+00  0.00000000E+00  0.00000000E+00
  0.00000000E+00  0.00000000E+00  0.00000000E+00
  0.00000000E+00  0.00000000E+00  0.00000000E+00
  0.00000000E+00  0.00000000E+00  0.00000000E+00
  0.00000000E+00  0.00000000E+00  0.00000000E+00
  0.00000000E+00  0.00000000E+00  0.00000000E+00
  0.00000000E+00  0.00000000E+00  0.00000000E+00
  0.00000000E+00  0.00000000E+00  0.00000000E+00
  0.00000000E+00  0.00000000E+00  0.00000000E+00
