Pd 
 1.0000000000000000
    25.5211374544436715    0.0000000000000000    0.0000000000000000
     0.0000000000000000   25.8513665647402959    0.0000000000000000
     0.0000000000000000    0.0000000000000000   21.9630757401223633
 Pd 
  16
Cartesian
 12.0009637407918408 12.4360238644187309 11.8580481702134453
 12.9832669902717246 14.8672627709554277 11.6900533977329850
  9.5302633326844113 12.2435979097140777 11.0116093635128802
 13.6998470682308611 12.9228214929409084  9.5420052683759078
 11.5684729825466075 11.3243097236482395  9.1817951351108249
 15.4311623174697790 14.5658998056663727 10.6261399306292716
 11.3097828285774096 13.9439872458732435  9.5609357885727704
  9.3633664262438785 12.5996284223860471  8.4154390683801967
 13.6075968259097664 10.6227746011718303 10.8700710852696414
  8.8591701467090775 14.6913741967285620 10.1469770141015303
 15.9527854563737499 11.8864287329491347 10.3785084740079263
 13.3677290519344432 15.5694671906757023  9.1505268497157388
 11.0678951528390837 16.3612279489755821 10.5025778112184192
 14.5424160163892857 12.7806042561024107 12.4095736372345193
 10.3990870467328254 14.5152977131497831 12.3219665709163202
 11.0279558244819196 10.0490671732821841 11.4115027503125877
