Al                                      
    1.000000000000000     
    22.5445356334381231    0.0000000000000000    0.0000000000000000
     0.0000000000000000   21.8398135462661571    0.0000000000000000
     0.0000000000000000    0.0000000000000000   22.6004105033200240
   Al
     7
Direct
  0.4492635750894416  0.5214901282857177  0.6067090530441931
  0.3967077855489721  0.5568283808620025  0.5064437155934243
  0.4437405041882079  0.4479631414032912  0.5177305731019114
  0.4927669193722494  0.5374308151461128  0.4442934152689362
  0.5507084959776062  0.4351378809715611  0.4703723371967899
  0.4998634900807129  0.6118796866472243  0.5324788657222618
  0.5532514224088821  0.5120934882270749  0.5607688898745685
 
  0.00000000E+00  0.00000000E+00  0.00000000E+00
  0.00000000E+00  0.00000000E+00  0.00000000E+00
  0.00000000E+00  0.00000000E+00  0.00000000E+00
  0.00000000E+00  0.00000000E+00  0.00000000E+00
  0.00000000E+00  0.00000000E+00  0.00000000E+00
  0.00000000E+00  0.00000000E+00  0.00000000E+00
  0.00000000E+00  0.00000000E+00  0.00000000E+00
