Al 
 1.0000000000000000
    22.5445356334381231    0.0000000000000000    0.0000000000000000
     0.0000000000000000   21.8398135462661571    0.0000000000000000
     0.0000000000000000    0.0000000000000000   22.6004105033200240
 Al 
   7
Cartesian
 10.1191557687870830 11.2342047490442347 13.7427812666497857
  8.6756366519742887 12.3349459479762746 11.7031504700574018
 10.4480961149322660 10.2598781807569175 11.1819504191263839
 10.1484161803748467 12.3520060937100435  9.4298505031836033
 12.8125959851954736  9.1315581021954522 11.2880559868187245
 11.4055429208132626 12.8604737515060847 11.7573056857450080
 12.7331668260726634 10.9487233963371438 13.1352082121338878
