Au                                      
    1.000000000000000     
    21.9696458254459444    0.0000000000000000    0.0000000000000000
     0.0000000000000000   22.5517169493161518    0.0000000000000000
     0.0000000000000000    0.0000000000000000   23.0871144776820643
   Au
     8
Direct
  0.3975887331292203  0.5265352143409623  0.4815008764451517
  0.5757703167910979  0.6194265501057045  0.6003226884030917
  0.4974216922411869  0.5799201600036842  0.5225969261049180
  0.4978400521517263  0.5585272624222383  0.4046235729510866
  0.5771812407782378  0.5050695333312359  0.5811273693323716
  0.5645393018938061  0.3929537845791709  0.5470512860990491
  0.4597221552482836  0.4590557062585579  0.5535385630271861
  0.5518415204439712  0.4758631594255227  0.4640493907465901
 
  0.00000000E+00  0.00000000E+00  0.00000000E+00
  0.00000000E+00  0.00000000E+00  0.00000000E+00
  0.00000000E+00  0.00000000E+00  0.00000000E+00
  0.00000000E+00  0.00000000E+00  0.00000000E+00
  0.00000000E+00  0.00000000E+00  0.00000000E+00
  0.00000000E+00  0.00000000E+00  0.00000000E+00
  0.00000000E+00  0.00000000E+00  0.00000000E+00
  0.00000000E+00  0.00000000E+00  0.00000000E+00
