Au 
 1.0000000000000000
    21.9696458254459444    0.0000000000000000    0.0000000000000000
     0.0000000000000000   22.5517169493161518    0.0000000000000000
     0.0000000000000000    0.0000000000000000   23.0871144776820643
 Au 
   8
Cartesian
  8.7380906044446736 11.8759146778100693 11.1153140446839735
 12.6492144442818315 13.9661445713393721 13.8575735374865623
 10.9244239611704508 13.0788207198407811 12.0685345685672711
 10.9380321275043020 12.5960032423577655  9.3409390325481709
 12.6824590472160175 11.3908736154361971 13.4148091636276483
 12.4062140126717342  8.8622782378741327 12.6306812176504835
 10.0964464310481894 10.3529833007733245 12.7794803579185743
 12.1219126263184798 10.7303243222208060 10.7152577206901505
