Ni Pd                                   
    1.000000000000000     
    22.8315298505011341    0.0000000000000000    0.0000000000000000
     0.0000000000000000   22.9670885048163029    0.0000000000000000
     0.0000000000000000    0.0000000000000000   21.0198798332168764
   Ni   Pd
     6     4
Direct
  0.5491047403413276  0.4330385237035657  0.5636398332365360
  0.5576533040583982  0.4881392223587611  0.4647588416118822
  0.4958322139371418  0.4010369423003013  0.4621816952126423
  0.4592054620472865  0.4793571099827076  0.5304500491960056
  0.4385867315178373  0.5808783436472496  0.5372575787337226
  0.4596155588156563  0.4978543109682434  0.4171178995904938
  0.6021250768300206  0.3905519123984433  0.4746657350208068
  0.5396617925083333  0.5449556816810457  0.5652306021831848
  0.5124849030364587  0.5858082238383986  0.4555699748435131
  0.3914314760172317  0.4265493380330554  0.4605045174324118
 
  0.00000000E+00  0.00000000E+00  0.00000000E+00
  0.00000000E+00  0.00000000E+00  0.00000000E+00
  0.00000000E+00  0.00000000E+00  0.00000000E+00
  0.00000000E+00  0.00000000E+00  0.00000000E+00
  0.00000000E+00  0.00000000E+00  0.00000000E+00
  0.00000000E+00  0.00000000E+00  0.00000000E+00
  0.00000000E+00  0.00000000E+00  0.00000000E+00
  0.00000000E+00  0.00000000E+00  0.00000000E+00
  0.00000000E+00  0.00000000E+00  0.00000000E+00
  0.00000000E+00  0.00000000E+00  0.00000000E+00
