Ni Pd 
 1.0000000000000000
    22.8315298505011341    0.0000000000000000    0.0000000000000000
     0.0000000000000000   22.9670885048163029    0.0000000000000000
     0.0000000000000000    0.0000000000000000   21.0198798332168764
 Ni  Pd 
   6   4
Cartesian
 12.5369012701547646  9.9456340998948125 11.8476415638463877
 12.7320780578399511 11.2111367225858256  9.7691750021068486
 11.3206079933459307  9.2106509475119474  9.7150036944822098
 10.4843632142457821 11.0094371703858727 11.1499962916240882
 10.0136060526832669 13.3410843290773968 11.2930897444679452
 10.4937263508544110 11.4342640225120586  8.7677681256760529
 13.7474366653799329  8.9698403377803348  9.9774167110828582
 12.3213043248289775 12.5160453723710425 11.8810793359473497
 11.7008143616080211 13.4543093237457274  9.5760261268323497
  8.9369794291132134  9.7965963982759785  9.6797496190828571
