Cu                                      
    1.000000000000000     
    21.6991532191593919    0.0000000000000000    0.0000000000000000
     0.0000000000000000   25.0062342851010300    0.0000000000000000
     0.0000000000000000    0.0000000000000000   26.1060171853804057
   Cu
    13
Direct
  0.5327089359754313  0.4759696581656401  0.5400232452766277
  0.4567035926825996  0.4767640820869765  0.4659424550727545
  0.5925717880322050  0.5585256843904933  0.5317139964615725
  0.5022807095718921  0.5511119160756334  0.5958401727123647
  0.4601312604062388  0.4053144857518469  0.5317319918689509
  0.6302345060837647  0.4743084699015640  0.4977479503140173
  0.5638456939693330  0.6161843776933891  0.4623645743824394
  0.5554979279326175  0.5197816865334006  0.4468344049872838
  0.5443814435643255  0.4181617642973353  0.4652661387229555
  0.5321973121050262  0.6348308403048394  0.5530798776453245
  0.4816760733095518  0.5657539869823460  0.5033189661684685
  0.4742835133103190  0.4523238714211965  0.6170507976225970
  0.4232556862388366  0.4982724961624360  0.5511100064195774
 
  0.00000000E+00  0.00000000E+00  0.00000000E+00
  0.00000000E+00  0.00000000E+00  0.00000000E+00
  0.00000000E+00  0.00000000E+00  0.00000000E+00
  0.00000000E+00  0.00000000E+00  0.00000000E+00
  0.00000000E+00  0.00000000E+00  0.00000000E+00
  0.00000000E+00  0.00000000E+00  0.00000000E+00
  0.00000000E+00  0.00000000E+00  0.00000000E+00
  0.00000000E+00  0.00000000E+00  0.00000000E+00
  0.00000000E+00  0.00000000E+00  0.00000000E+00
  0.00000000E+00  0.00000000E+00  0.00000000E+00
  0.00000000E+00  0.00000000E+00  0.00000000E+00
  0.00000000E+00  0.00000000E+00  0.00000000E+00
  0.00000000E+00  0.00000000E+00  0.00000000E+00
