Cu 
 1.0000000000000000
    21.6991532191593919    0.0000000000000000    0.0000000000000000
     0.0000000000000000   25.0062342851010300    0.0000000000000000
     0.0000000000000000    0.0000000000000000   26.1060171853804057
 Cu 
  13
Cartesian
 11.5581691379600464 11.9003244843847025 14.0961853143905564
  9.9097854579800106 11.9199996896003348 12.1653207673209796
 12.8604699045286566 13.9670939298928083 13.8814966924398231
 10.9004174774946065 13.7824274245488532 15.5545650293277689
  9.9857801641548960 10.1388886568775138 13.8801111748853110
 13.6761123037505676 11.8619287218033254 12.9959201454392073
 12.2330269713878668 15.4085363067445371 12.0710329528702633
 12.0570263328634280 12.9977729522559500 11.6643669820800593
 11.8117710896423738 10.4581535750087795 12.1453565572135425
 11.5479819797748604 15.8736978262162687 14.4341126633585297
 10.4505994897014123 14.1467152752483099 13.1394282865057228
 10.2898340213594821 11.3077847074039930 16.1100616301961814
  9.1832853118580182 12.4607006282403461 14.3915716361961632
