Pd                                      
    1.000000000000000     
    23.8572007531651806    0.0000000000000000    0.0000000000000000
     0.0000000000000000   23.9233181605523058    0.0000000000000000
     0.0000000000000000    0.0000000000000000   23.8555754728313723
   Pd
    16
Direct
  0.4853705970555202  0.5161372056261919  0.5123388944996553
  0.5444747389131229  0.5670937083135116  0.5887782464697898
  0.5240693731130132  0.4574395180819804  0.6007356823130500
  0.4387818796286590  0.5887165932225671  0.4475556739002259
  0.5613116509097820  0.4377252275952689  0.4954390508281161
  0.4383729461858782  0.5261658407534371  0.6208360353333092
  0.4209867371194496  0.4365705097232273  0.5493944001986537
  0.3717879044898826  0.5384407864867011  0.5308035059673821
  0.5036100040054763  0.3610776625868763  0.5528866695777064
  0.5827561019778721  0.5495662459248845  0.4790217932262844
  0.4037302060628430  0.4821741141181094  0.4404493605690686
  0.5092057593029060  0.4841099818401837  0.4065566629406827
  0.4663546694273497  0.3917374463995096  0.4544982591078087
  0.5310066136763975  0.5885184691715981  0.3915349261563198
  0.6246885786949365  0.4948172228083217  0.5656153563827928
  0.4496108826797555  0.6164929979674950  0.5560338650611699
 
  0.00000000E+00  0.00000000E+00  0.00000000E+00
  0.00000000E+00  0.00000000E+00  0.00000000E+00
  0.00000000E+00  0.00000000E+00  0.00000000E+00
  0.00000000E+00  0.00000000E+00  0.00000000E+00
  0.00000000E+00  0.00000000E+00  0.00000000E+00
  0.00000000E+00  0.00000000E+00  0.00000000E+00
  0.00000000E+00  0.00000000E+00  0.00000000E+00
  0.00000000E+00  0.00000000E+00  0.00000000E+00
  0.00000000E+00  0.00000000E+00  0.00000000E+00
  0.00000000E+00  0.00000000E+00  0.00000000E+00
  0.00000000E+00  0.00000000E+00  0.00000000E+00
  0.00000000E+00  0.00000000E+00  0.00000000E+00
  0.00000000E+00  0.00000000E+00  0.00000000E+00
  0.00000000E+00  0.00000000E+00  0.00000000E+00
  0.00000000E+00  0.00000000E+00  0.00000000E+00
  0.00000000E+00  0.00000000E+00  0.00000000E+00
