Pd 
 1.0000000000000000
    23.8572007531651806    0.0000000000000000    0.0000000000000000
     0.0000000000000000   23.9233181605523058    0.0000000000000000
     0.0000000000000000    0.0000000000000000   23.8555754728313723
 Pd 
  16
Cartesian
 11.5705203423825260 11.8497658756946791 12.4108990465818110
 12.9373351086663018 13.5673099595463160 14.0028703336402298
 12.8614306719885558 11.0938728875405754 14.7124117656511686
 10.9225991565918665 13.8742774865156324 10.8618734190089974
 13.5636984550323270 10.3803998548569609 11.6552974895637256
 10.4900364829747854 12.2782758672135479 14.6889473508209640
  9.5041941763074433 10.3537496588767741 12.8962493327829826
  8.9743724452495446 12.8895586116606875 12.6008142534928194
 11.8229406589911470  9.2438477857122283 13.3347294400463614
 13.5504546013103599 13.2721628560360934 11.3972471214002589
  9.6238627636807319 11.5830890782762026 10.4795300370703437
 12.1822462812420262 11.7025704817098894  9.7637647748168810
 11.1431296470541383  9.5510270501516299 10.8926476221871162
 12.7646120538000236 14.1102173400935307  9.1138673915609001
 14.8089013219166237 11.9483914565037601 13.2497401112620299
 10.7046654453401100 14.5680131401172162 13.3753968741452809
