Ni Pd                                   
    1.000000000000000     
    23.8652992577844998    0.0000000000000000    0.0000000000000000
     0.0000000000000000   22.3173070002723719    0.0000000000000000
     0.0000000000000000    0.0000000000000000   22.7798048500516508
   Ni   Pd
     6     4
Direct
  0.4496140257941248  0.6600599418131465  0.5520111959936859
  0.4776782357416993  0.5610581942153975  0.5129684529555730
  0.5522738666166269  0.6363095283900928  0.5425703130962111
  0.4726271541618559  0.5655070517599209  0.4121679274185405
  0.4946209026593720  0.6554719355318314  0.4569476827988095
  0.4929035832549437  0.5894189875349106  0.6096444551712903
  0.5681433091647153  0.5723324529230549  0.4486764211712520
  0.5162444973047745  0.7366234746561324  0.5251244477211997
  0.5650956348240764  0.5288068196617131  0.5620773329455748
  0.3967275570125592  0.6139922423024683  0.4667283729422030
 
  0.00000000E+00  0.00000000E+00  0.00000000E+00
  0.00000000E+00  0.00000000E+00  0.00000000E+00
  0.00000000E+00  0.00000000E+00  0.00000000E+00
  0.00000000E+00  0.00000000E+00  0.00000000E+00
  0.00000000E+00  0.00000000E+00  0.00000000E+00
  0.00000000E+00  0.00000000E+00  0.00000000E+00
  0.00000000E+00  0.00000000E+00  0.00000000E+00
  0.00000000E+00  0.00000000E+00  0.00000000E+00
  0.00000000E+00  0.00000000E+00  0.00000000E+00
  0.00000000E+00  0.00000000E+00  0.00000000E+00
