Ni Pd 
 1.0000000000000000
    23.8652992577844998    0.0000000000000000    0.0000000000000000
     0.0000000000000000   22.3173070002723719    0.0000000000000000
     0.0000000000000000    0.0000000000000000   22.7798048500516508
 Ni  Pd 
   6   4
Cartesian
 10.7305871069930010 14.7319184279934312 12.5746857834193762
 11.4012444004488369 12.5246244455969702 11.6827552260422891
 13.1822741380401052 14.2023008777727782 12.3651645903623351
 11.2771392296756456 12.6195170048677774  9.3894322014489848
 11.8055896804541867 14.6313128499957266 10.4084430977751925
 11.7648347769028661 13.1521187904412127 13.8863422924808120
 13.5596843361951329 12.7714290345247399 10.2189987937800133
 12.3188279870023294 -5.8807941407984394 11.9614354199000381
 13.4812664451242430 11.8031681364019860 12.8037598904952823
  9.4692339905119649 13.6996571785278700 10.6335098009263387
