Ni Pd                                   
    1.000000000000000     
    22.1478365229388992    0.0000000000000000    0.0000000000000000
     0.0000000000000000   22.0686447996362105    0.0000000000000000
     0.0000000000000000    0.0000000000000000   22.9459903803158625
   Ni   Pd
     6     4
Direct
  0.4802831939104514  0.5292044534532176  0.4933202030910250
  0.5711826315326066  0.5172313898702183  0.4450124877369260
  0.5149207295636743  0.4269137816390381  0.4404340430672816
  0.5163815250835387  0.5527898989985786  0.5810661222191008
  0.5533520232299799  0.4646830694520193  0.5326853108577411
  0.4455707307774435  0.4363997729169963  0.5172671373755297
  0.4705041304026974  0.5172440425178464  0.3884911628749705
  0.6143342792894584  0.5617829732411710  0.5326094548617823
  0.4063491767826378  0.4220093746122121  0.4181208815073789
  0.4844507068828382  0.4536155977171584  0.6148703717866990
 
  0.00000000E+00  0.00000000E+00  0.00000000E+00
  0.00000000E+00  0.00000000E+00  0.00000000E+00
  0.00000000E+00  0.00000000E+00  0.00000000E+00
  0.00000000E+00  0.00000000E+00  0.00000000E+00
  0.00000000E+00  0.00000000E+00  0.00000000E+00
  0.00000000E+00  0.00000000E+00  0.00000000E+00
  0.00000000E+00  0.00000000E+00  0.00000000E+00
  0.00000000E+00  0.00000000E+00  0.00000000E+00
  0.00000000E+00  0.00000000E+00  0.00000000E+00
  0.00000000E+00  0.00000000E+00  0.00000000E+00
