Ni Pd 
 1.0000000000000000
    22.1478365229388992    0.0000000000000000    0.0000000000000000
     0.0000000000000000   22.0686447996362105    0.0000000000000000
     0.0000000000000000    0.0000000000000000   22.9459903803158625
 Ni  Pd 
   6   4
Cartesian
 10.7674192926179497 12.1402179377618094 11.6843467355828405
 12.5052083392882274 11.3047590329534646 10.2130328713379512
 11.5223398314806609  9.1394554805140995  9.6428543517501168
 11.3603754928574379 13.0696303857565184 13.8590245411834143
 12.4251924353159815  9.5680280799543098 11.8929203534286412
 10.0457690424540900  9.8204772163291558 11.5054642474817808
 10.1394908532565324 11.2300863584519970  9.4035421426875399
 13.0948223932024224 11.8629875685552335 12.6093694710431148
  9.0818707673078940  8.9569890289074490  9.4046811076481962
 11.0664103097967974 10.6437199949301924 13.6858420931594367
