Pd                                      
    1.000000000000000     
    23.6412241781306527    0.0000000000000000    0.0000000000000000
     0.0000000000000000   24.8026808120511895    0.0000000000000000
     0.0000000000000000    0.0000000000000000   25.2184478360363364
   Pd
    16
Direct
  0.4913213757866099  0.5333504203174170  0.3778776378684108
  0.3826933250461670  0.5105351636470139  0.4073617106122074
  0.5699030890039013  0.5190399437260538  0.4520918589311487
  0.5269377680694278  0.6169614638568336  0.4400141138749556
  0.4661945190045453  0.4425342934014556  0.4287218557792551
  0.4215249443988239  0.6140089556414202  0.3947687572184211
  0.4462945192168196  0.5567903123996214  0.4786864680333869
  0.3892875617346063  0.4677141739672653  0.5071992503480207
  0.4578699771026817  0.3782426026957436  0.5141286740502146
  0.5023547060415890  0.4749805356023326  0.5202921505756001
  0.6081682159345473  0.4899774149807312  0.5484064253663443
  0.4365416538150352  0.4372218791482466  0.6016595907794169
  0.4309188845262206  0.5433502316345378  0.5802672199233696
  0.5439469081835409  0.4033198982248276  0.5867296630895824
  0.5362329166215112  0.5767936094744502  0.5405448239939463
  0.5272507007336290  0.5048156022688310  0.6224680571057205
 
  0.00000000E+00  0.00000000E+00  0.00000000E+00
  0.00000000E+00  0.00000000E+00  0.00000000E+00
  0.00000000E+00  0.00000000E+00  0.00000000E+00
  0.00000000E+00  0.00000000E+00  0.00000000E+00
  0.00000000E+00  0.00000000E+00  0.00000000E+00
  0.00000000E+00  0.00000000E+00  0.00000000E+00
  0.00000000E+00  0.00000000E+00  0.00000000E+00
  0.00000000E+00  0.00000000E+00  0.00000000E+00
  0.00000000E+00  0.00000000E+00  0.00000000E+00
  0.00000000E+00  0.00000000E+00  0.00000000E+00
  0.00000000E+00  0.00000000E+00  0.00000000E+00
  0.00000000E+00  0.00000000E+00  0.00000000E+00
  0.00000000E+00  0.00000000E+00  0.00000000E+00
  0.00000000E+00  0.00000000E+00  0.00000000E+00
  0.00000000E+00  0.00000000E+00  0.00000000E+00
  0.00000000E+00  0.00000000E+00  0.00000000E+00
