Pd 
 1.0000000000000000
    23.6412241781306527    0.0000000000000000    0.0000000000000000
     0.0000000000000000   24.8026808120511895    0.0000000000000000
     0.0000000000000000    0.0000000000000000   25.2184478360363364
 Pd 
  16
Cartesian
 11.5924649958719641 13.2973327974938567  9.4634097515486353
  9.1144692913963645 12.7437511747538306 10.1405115783441175
 13.2957550387416159 12.8739655492632021 11.4037561007730730
 12.4083263093149334 15.2816448312398130 11.0379308307528365
 11.0204783139040394 11.1394403648252851 10.8680508561909264
  9.9984761125591533 15.2251303114607150  9.9848472218478914
 10.6068966056917020 13.7089595660218251 11.9848140579273608
  9.2658026280531178 11.5604580207517262 12.8197611401278984
 10.8304780644313183  9.4335844376077898 13.0630946466824245
 11.8580117657849780 11.7614663317192019 13.2333374028576856
 14.2969158566596004 12.1549908054512859 13.8738532052185235
 10.3757131649605618 10.8366437721482143 15.2066166362902546
 10.2650871509124819 13.3863751098213388 14.5868782150254503
 12.8496489829331342 10.0295054355174749 14.8120656138224707
 12.6764719365479941 14.2373606047991181 13.6040450267290449
 12.4675825701688634 12.4780092903779867 15.6953329686277456
