Pd                                      
    1.000000000000000     
    24.3193026369052205    0.0000000000000000    0.0000000000000000
     0.0000000000000000   25.7829960296829483    0.0000000000000000
     0.0000000000000000    0.0000000000000000   24.1927113331723618
   Pd
    16
Direct
  0.3884501112475244  0.5376777851229634  0.4548701652441761
  0.4494538368624772  0.5169262999255011  0.3655455023514241
  0.4613838620013723  0.6070618340809453  0.4238416630979017
  0.4018580638762179  0.4752770514916373  0.5463985360872212
  0.4528189765870895  0.4535059051566524  0.4501507027454138
  0.5319428502576858  0.4420693333141415  0.3772832731690114
  0.4784747589410151  0.5463142131213158  0.5165162480916553
  0.5377346961038648  0.5333198727537499  0.4249049452491409
  0.5542654915654401  0.6140324600853914  0.4895073768708086
  0.4371964467064879  0.3808190672633804  0.5274719106884082
  0.3829743389826609  0.5739149872643818  0.5549649084794768
  0.6380030881616037  0.5502772490969072  0.4654142018306124
  0.5922679197543438  0.4583859462386729  0.4715959212795083
  0.5799150824474241  0.5297132237875780  0.5540341934741123
  0.5268139057088713  0.3776252118981359  0.4643690907368913
  0.5120687211522467  0.4508734254246505  0.5463273136584850
 
  0.00000000E+00  0.00000000E+00  0.00000000E+00
  0.00000000E+00  0.00000000E+00  0.00000000E+00
  0.00000000E+00  0.00000000E+00  0.00000000E+00
  0.00000000E+00  0.00000000E+00  0.00000000E+00
  0.00000000E+00  0.00000000E+00  0.00000000E+00
  0.00000000E+00  0.00000000E+00  0.00000000E+00
  0.00000000E+00  0.00000000E+00  0.00000000E+00
  0.00000000E+00  0.00000000E+00  0.00000000E+00
  0.00000000E+00  0.00000000E+00  0.00000000E+00
  0.00000000E+00  0.00000000E+00  0.00000000E+00
  0.00000000E+00  0.00000000E+00  0.00000000E+00
  0.00000000E+00  0.00000000E+00  0.00000000E+00
  0.00000000E+00  0.00000000E+00  0.00000000E+00
  0.00000000E+00  0.00000000E+00  0.00000000E+00
  0.00000000E+00  0.00000000E+00  0.00000000E+00
  0.00000000E+00  0.00000000E+00  0.00000000E+00
