Pd 
 1.0000000000000000
    24.3193026369052205    0.0000000000000000    0.0000000000000000
     0.0000000000000000   25.7829960296829483    0.0000000000000000
     0.0000000000000000    0.0000000000000000   24.1927113331723618
 Pd 
  16
Cartesian
  9.3908335702132479 13.7989657098093499 10.9783498586637780
 10.9891571285874381 13.3951487007615366  8.9064006115371424
 11.2366736152450741 15.5471380622373516 10.4175474739894369
  9.7836934096889010 12.2760786955266958 13.2247414946289403
 11.1284243530254816 11.8345960077374102 10.9759494480441582
 12.9511152111721142 11.3820292067021285  9.2070807193649085
 11.5838508535074318 14.0826567954779502 12.5627937433819508
 13.0908819649202695 13.6979755422970602 10.3793897093388967
 13.5008974263846682 15.8068781608295232 11.8202432214494539
 10.5991955050765068  9.8862711529177965 12.6557925433023790
  9.2223297326917812 14.7762084148239250 13.3074845757457449
 15.4926775884071990 14.2238276442330331 11.1418595332777475
 14.4447476194671953 11.7470006811766190 11.4074748261364487
 14.1039696976838691 13.6590273175656556 13.1815533258406106
 12.7644968731230861  9.7833430016087988 11.2731911786713130
 12.4626591110807166 11.5990922017500129 13.2278539784079872
