Al                                      
    1.000000000000000     
    22.5445356334381231    0.0000000000000000    0.0000000000000000
     0.0000000000000000   21.8398135462661571    0.0000000000000000
     0.0000000000000000    0.0000000000000000   22.6004105033200240
   Al
     7
Direct
  0.2742122591206089  0.5992286286149339  0.7191741356001231
  0.2739480307840471  0.5374378627591336  0.6207150230386784
  0.3753694986555018  0.5343973276108048  0.6755520245731705
  0.3695873119766532  0.5983389067674462  0.5793107128097332
  0.3799407850187481  0.6060924873802016  0.7701753427464519
  0.2717283384880501  0.6610271645446816  0.6216028826831067
  0.3749999483617699  0.6695514331235576  0.6703831914159109
 
  0.00000000E+00  0.00000000E+00  0.00000000E+00
  0.00000000E+00  0.00000000E+00  0.00000000E+00
  0.00000000E+00  0.00000000E+00  0.00000000E+00
  0.00000000E+00  0.00000000E+00  0.00000000E+00
  0.00000000E+00  0.00000000E+00  0.00000000E+00
  0.00000000E+00  0.00000000E+00  0.00000000E+00
  0.00000000E+00  0.00000000E+00  0.00000000E+00
