Al 
 1.0000000000000000
    22.5445356334381231    0.0000000000000000    0.0000000000000000
     0.0000000000000000   21.8398135462661571    0.0000000000000000
     0.0000000000000000    0.0000000000000000   22.6004105033200240
 Al 
   7
Cartesian
 28.6539269916282002 34.6458719247277145 38.9083832160793079
 28.6306795728942802 33.6115501001207448 36.3724829487819150
 30.8223176189321499 33.3289558824465786 37.9635031891999404
 31.0504045858014734 34.8193888436251910 35.9615003160636704
 31.1174869150300708 35.2859598556889722 39.6835394800725467
 28.6913878625601519 36.2555173900875545 36.9707250124300515
 31.1440479129706489 36.7913186168883186 37.5908919097869614
