Au Cu                                   
    1.000000000000000     
    23.1620270323018183    0.0000000000000000    0.0000000000000000
     0.0000000000000000   23.8686872752921779    0.0000000000000000
     0.0000000000000000    0.0000000000000000   20.5437126988088536
   Au   Cu
     4     4
Direct
  0.4115030699340643  0.4625354624827135  0.5116841696242427
  0.4488964899826736  0.5761030714956380  0.5411934227362515
  0.5015230174174591  0.3899755699783852  0.5372124905801013
  0.5938437067555288  0.4658885146170992  0.4836936860242809
  0.4307134643448205  0.5277107682900026  0.4167918665572504
  0.5256829394600213  0.5462885325368336  0.4597964139098564
  0.4953877119275829  0.4510452165073676  0.4321524140340122
  0.5111419065826284  0.4928202745186500  0.5611993410420862
 
  0.00000000E+00  0.00000000E+00  0.00000000E+00
  0.00000000E+00  0.00000000E+00  0.00000000E+00
  0.00000000E+00  0.00000000E+00  0.00000000E+00
  0.00000000E+00  0.00000000E+00  0.00000000E+00
  0.00000000E+00  0.00000000E+00  0.00000000E+00
  0.00000000E+00  0.00000000E+00  0.00000000E+00
  0.00000000E+00  0.00000000E+00  0.00000000E+00
  0.00000000E+00  0.00000000E+00  0.00000000E+00
