Au Cu 
 1.0000000000000000
    23.1620270323018183    0.0000000000000000    0.0000000000000000
     0.0000000000000000   23.8686872752921779    0.0000000000000000
     0.0000000000000000    0.0000000000000000   20.5437126988088536
 Au  Cu 
   4   4
Cartesian
  9.7494820993592626 11.1251656499807474 10.5917458858184972
 10.2403508450906351 13.6090264714479900 10.9275707481133377
 11.7273941046970602  9.4447047690513504 10.8977853173863721
 13.5883952245838522 10.9247227324978500 10.0548343921220038
  9.8881866486339334 12.7232110258923949  8.6101225824193399
 12.1967915364856196 12.9613069745206548  9.4910526303491114
 11.4402648528221693 10.7266977534349248  8.7105399951043943
 11.9339918205484032 11.8682388486933554 11.7350772519543192
