Al                                      
    1.000000000000000     
    21.4339498231461576    0.0000000000000000    0.0000000000000000
     0.0000000000000000   21.4082816839591175    0.0000000000000000
     0.0000000000000000    0.0000000000000000   21.8408342402429909
   Al
     7
Direct
  0.4620339612622907  0.5411453330464049  0.5488865377022121
  0.3745544205849399  0.5163188400031554  0.4665188083542844
  0.5613944803626720  0.5888716088954113  0.5000502534990827
  0.5701591831984167  0.4941242375582771  0.4173010634292972
  0.4754164233303912  0.5692387924121370  0.4189927126909393
  0.5579638925224693  0.4682468769417952  0.5387465686470146
  0.4716538877151215  0.4397264186794110  0.4605133277137755
 
  0.00000000E+00  0.00000000E+00  0.00000000E+00
  0.00000000E+00  0.00000000E+00  0.00000000E+00
  0.00000000E+00  0.00000000E+00  0.00000000E+00
  0.00000000E+00  0.00000000E+00  0.00000000E+00
  0.00000000E+00  0.00000000E+00  0.00000000E+00
  0.00000000E+00  0.00000000E+00  0.00000000E+00
  0.00000000E+00  0.00000000E+00  0.00000000E+00
