Al 
 1.0000000000000000
    21.4339498231461576    0.0000000000000000    0.0000000000000000
     0.0000000000000000   21.4082816839591175    0.0000000000000000
     0.0000000000000000    0.0000000000000000   21.8408342402429909
 Al 
   7
Cartesian
  9.9046963252889082 11.5833946646538948 11.9860323986259765
  8.0278033981328267 11.0536395625842516 10.1891468335757818
 12.0316479495403961 12.6055696805461377 10.9208700854231964
 12.2205355032810559 10.5783301534217919  9.1138425899520517
 10.1910336261669876 12.1850863684985882  9.1534864615726974
 11.9578313024757907 10.0256939798931377 11.7666050571911374
 10.1103373426149705  9.4164291087474314 10.0588546217279351
