Ni Pd                                   
    1.000000000000000     
    22.8337799861254247    0.0000000000000000    0.0000000000000000
     0.0000000000000000   23.2115339430568142    0.0000000000000000
     0.0000000000000000    0.0000000000000000   21.8484056386010721
   Ni   Pd
     6     4
Direct
  0.3836613690801371  0.4987369511804332  0.5251804308021590
  0.4233597286744200  0.5144494286331067  0.4286522388353688
  0.4838006911440118  0.4685337593386052  0.5216276211185615
  0.4982706986407806  0.4467628132289221  0.4196309328469923
  0.5233696135767119  0.5415880672586937  0.4415187751264895
  0.4541182239546799  0.5718555634688300  0.5155147926827155
  0.3584443719171801  0.5880794039999842  0.4723847218022286
  0.5880216470280715  0.4624578311245884  0.4806655515185980
  0.4070837354054788  0.4106963540455055  0.4663626620087697
  0.5504302292071799  0.5479499708946207  0.5532841981192647
 
  0.00000000E+00  0.00000000E+00  0.00000000E+00
  0.00000000E+00  0.00000000E+00  0.00000000E+00
  0.00000000E+00  0.00000000E+00  0.00000000E+00
  0.00000000E+00  0.00000000E+00  0.00000000E+00
  0.00000000E+00  0.00000000E+00  0.00000000E+00
  0.00000000E+00  0.00000000E+00  0.00000000E+00
  0.00000000E+00  0.00000000E+00  0.00000000E+00
  0.00000000E+00  0.00000000E+00  0.00000000E+00
  0.00000000E+00  0.00000000E+00  0.00000000E+00
  0.00000000E+00  0.00000000E+00  0.00000000E+00
