Ni Pd 
 1.0000000000000000
    22.8337799861254247    0.0000000000000000    0.0000000000000000
     0.0000000000000000   23.2115339430568142    0.0000000000000000
     0.0000000000000000    0.0000000000000000   21.8484056386010721
 Ni  Pd 
   6   4
Cartesian
  8.7604392907514885 11.5764496709813720 11.4743550856208518
  9.6669028995373925 11.9411603747035038  9.3653679919696096
 11.0469985387177179 10.8753872583559765 11.3967318584968620
 11.3774035062966288 10.3700502037586197  9.1682668393456179
 11.9505066078340505 12.5710898063297503  9.6464812960218929
 10.3692356134712647 13.2736448219825629 11.2631763032313561
  8.1846399256218554 13.6502250471582212 10.3208530194128247
 13.4267569153180535 10.7343556443807504 10.5017759460802580
  9.2952604501787306  9.5328923622169075 10.1892806142654511
 12.5684027514292733 12.7187593485174499 12.0883775939378175
