Au                                      
    1.000000000000000     
    20.7155376751792417    0.0000000000000000    0.0000000000000000
     0.0000000000000000   22.7887771008067403    0.0000000000000000
     0.0000000000000000    0.0000000000000000   23.6620667633434323
   Au
     8
Direct
  0.4673781458763842  0.4352955555831751  0.4017444637543718
  0.4208686695808513  0.5444502994058256  0.4188688500555464
  0.4635867277923156  0.4123812923008656  0.5135528877721445
  0.5283209434002949  0.5138117910896983  0.4740231690067973
  0.4562515243509692  0.6101727996322334  0.5085073485135335
  0.3913240341385343  0.4205198376585115  0.6058430609437172
  0.5809139580603168  0.4594699729135841  0.5596952135334712
  0.4582899261940493  0.5151563975635082  0.5766562144111651
 
  0.00000000E+00  0.00000000E+00  0.00000000E+00
  0.00000000E+00  0.00000000E+00  0.00000000E+00
  0.00000000E+00  0.00000000E+00  0.00000000E+00
  0.00000000E+00  0.00000000E+00  0.00000000E+00
  0.00000000E+00  0.00000000E+00  0.00000000E+00
  0.00000000E+00  0.00000000E+00  0.00000000E+00
  0.00000000E+00  0.00000000E+00  0.00000000E+00
  0.00000000E+00  0.00000000E+00  0.00000000E+00
