Au 
 1.0000000000000000
    20.7155376751792417    0.0000000000000000    0.0000000000000000
     0.0000000000000000   22.7887771008067403    0.0000000000000000
     0.0000000000000000    0.0000000000000000   23.6620667633434323
 Au 
   8
Cartesian
  9.2381664692299186 10.1837365911848448  9.6653867382663137
  9.2195404727361829 12.7012845767887317  9.4958133766388997
  9.8565275491191588  9.0026369254334124 11.8730524894938796
 10.6849011750365985 11.5454862602751032 11.4409951709125650
  9.0340138217684505 13.5870570910145876 11.8525497406005940
  8.8866712837408706  9.7569178887854751 14.1362823743441837
 11.3969997829064429 10.1718078158322598 13.6730472709785662
  9.7172411797288323 12.1838583691981839 13.9046275873900402
