Ni                                      
    1.000000000000000     
    22.2175998914695541    0.0000000000000000    0.0000000000000000
     0.0000000000000000   23.5095029547083030    0.0000000000000000
     0.0000000000000000    0.0000000000000000   21.1914949444114562
   Ni
    10
Direct
  0.4980561710241398  0.4427436108280410  0.5287513063257273
  0.5023626895464587  0.4761621897563947  0.4274066604781459
  0.4776428987973924  0.5618859575104640  0.4812380062659470
  0.5529987866677566  0.5283337037531546  0.5446171914392046
  0.4117029911965884  0.4847155097682080  0.4849915358998552
  0.5937460971869564  0.4561004787168864  0.4787587997176863
  0.4519163415930668  0.5199444193001531  0.5780936596809928
  0.5765528695508768  0.5483593818554380  0.4387131130557872
  0.5324666254593904  0.3837966029276347  0.4491422035130785
  0.5574138250038180  0.6207901089421669  0.5065773766740852
 
  0.00000000E+00  0.00000000E+00  0.00000000E+00
  0.00000000E+00  0.00000000E+00  0.00000000E+00
  0.00000000E+00  0.00000000E+00  0.00000000E+00
  0.00000000E+00  0.00000000E+00  0.00000000E+00
  0.00000000E+00  0.00000000E+00  0.00000000E+00
  0.00000000E+00  0.00000000E+00  0.00000000E+00
  0.00000000E+00  0.00000000E+00  0.00000000E+00
  0.00000000E+00  0.00000000E+00  0.00000000E+00
  0.00000000E+00  0.00000000E+00  0.00000000E+00
  0.00000000E+00  0.00000000E+00  0.00000000E+00
