Ni 
 1.0000000000000000
    22.2175998914695541    0.0000000000000000    0.0000000000000000
     0.0000000000000000   23.5095029547083030    0.0000000000000000
     0.0000000000000000    0.0000000000000000   21.1914949444114562
 Ni 
  10
Cartesian
 11.1012156048839081 10.3676030218339807 11.3005891994823457
 11.1914432444178900 11.2136973821234154  8.9857897136568869
 10.5581418705180425 13.2479510719211877 10.1046988761342078
 12.3558929777187370 12.4031266133860978 11.5714817698823698
  9.1354402060221176 11.2805102276676532 10.2768031570652010
 13.2557891129701382 10.6684267689725178 10.1261029330914436
 10.0373079702804944 12.3400694326491660 12.2613225517427402
 12.8692535492944966 12.9477080783628899  9.2627033528101066
 11.7060434744379815  8.9406400369661672  9.4870576907605955
 12.3180733253943853 14.6745502496978713 10.8493653114440054
