Ni                                      
    1.000000000000000     
    21.9019819597055658    0.0000000000000000    0.0000000000000000
     0.0000000000000000   21.7134668097636840    0.0000000000000000
     0.0000000000000000    0.0000000000000000   21.8625569046493986
   Ni
    10
Direct
  0.5000100324428168  0.4674912014646354  0.4117489120872067
  0.4647665928734134  0.5557213819816196  0.4617129229305369
  0.4109067869047940  0.4631595590672080  0.4703916158551897
  0.5524756118821611  0.5068714974012337  0.4970970469298073
  0.4988153030615329  0.4145827775685230  0.5056285432027946
  0.4150954187545553  0.5310275524491603  0.5530497034817695
  0.5070136990166535  0.5855542537347599  0.5553934222215603
  0.4137745959246284  0.4248122974496343  0.5703993562393347
  0.5030597526346416  0.4823593678688640  0.5882040849170207
  0.5891642041404042  0.4284744580166163  0.5583549570311028
 
  0.00000000E+00  0.00000000E+00  0.00000000E+00
  0.00000000E+00  0.00000000E+00  0.00000000E+00
  0.00000000E+00  0.00000000E+00  0.00000000E+00
  0.00000000E+00  0.00000000E+00  0.00000000E+00
  0.00000000E+00  0.00000000E+00  0.00000000E+00
  0.00000000E+00  0.00000000E+00  0.00000000E+00
  0.00000000E+00  0.00000000E+00  0.00000000E+00
  0.00000000E+00  0.00000000E+00  0.00000000E+00
  0.00000000E+00  0.00000000E+00  0.00000000E+00
  0.00000000E+00  0.00000000E+00  0.00000000E+00
