Ni 
 1.0000000000000000
    21.9019819597055658    0.0000000000000000    0.0000000000000000
     0.0000000000000000   21.7134668097636840    0.0000000000000000
     0.0000000000000000    0.0000000000000000   21.8625569046493986
 Ni 
  10
Cartesian
 10.9714867374355496 10.1331393897629507  8.9366210944271280
 10.1616990380094983 12.1222314559794224 10.0497256128889010
  8.9391417298460922 10.0395834298912341 10.2462806504869306
 12.1632165099426732 11.0412082126237081 10.8366645192366491
 10.9229163381419916  8.9267460317355418 11.0324505825863266
  9.0346881975528870 11.5660491284102243 12.1191599643280377
 11.1294706172116005 12.7725544421685502 12.1713460073221942
  9.0271019353983952  9.1786365834166723 12.5100525465522079
 11.0217518429407715 10.4788024748164439 12.9394167967142231
 12.9644453786266300  9.2696776084764281 12.2310016352440165
