Au                                      
    1.000000000000000     
    21.3845940479376253    0.0000000000000000    0.0000000000000000
     0.0000000000000000   22.7381636804237957    0.0000000000000000
     0.0000000000000000    0.0000000000000000   23.8097772769616256
   Au
     8
Direct
  0.5021260736536924  0.3961122091916460  0.3780612432077893
  0.5472253004666360  0.4939804500971591  0.4182784489101494
  0.4207107014750273  0.4629461955168409  0.4345167757417722
  0.5786583001662570  0.6047059862767893  0.4429888453696263
  0.4530323768190148  0.5765274558627231  0.4539366907195552
  0.5484248779092421  0.5360316133643305  0.5299884788495658
  0.4210906851448815  0.5046235755302280  0.5401690399484608
  0.5053184910426238  0.4888400904189811  0.6219256130324615
 
  0.00000000E+00  0.00000000E+00  0.00000000E+00
  0.00000000E+00  0.00000000E+00  0.00000000E+00
  0.00000000E+00  0.00000000E+00  0.00000000E+00
  0.00000000E+00  0.00000000E+00  0.00000000E+00
  0.00000000E+00  0.00000000E+00  0.00000000E+00
  0.00000000E+00  0.00000000E+00  0.00000000E+00
  0.00000000E+00  0.00000000E+00  0.00000000E+00
  0.00000000E+00  0.00000000E+00  0.00000000E+00
