Au 
 1.0000000000000000
    21.3845940479376253    0.0000000000000000    0.0000000000000000
     0.0000000000000000   22.7381636804237957    0.0000000000000000
     0.0000000000000000    0.0000000000000000   23.8097772769616256
 Au 
   8
Cartesian
 10.6760636892417455  9.0885089437880726  9.0708981607079657
 11.6560903677173844 11.2476950078738174  9.9975640175638514
  9.0938375624057386 10.5164985989574777 10.3687007762715719
 12.2903479962735194 13.7200878789038043 10.5595758221717233
  9.7999239212984808 13.0698826592658754 10.8207419202559123
 11.6784593253890510 12.1750840139199425 12.5796396798003514
  9.1020719158494341 11.4513751355877869 12.8489969589229940
 10.7408997790048755 11.1334800698724283 14.7040207752433805
