Ni                                      
    1.000000000000000     
    22.0484995901640417    0.0000000000000000    0.0000000000000000
     0.0000000000000000   21.7551052607294864    0.0000000000000000
     0.0000000000000000    0.0000000000000000   22.9266914871422962
   Ni
    10
Direct
  0.4406064558230505  0.5227874773582276  0.5858077588463450
  0.4873303482900353  0.5966362867997385  0.5263230688381449
  0.4285475071688037  0.5195960190815758  0.4827500858950817
  0.5286685073838659  0.4962359945787513  0.5336892033365772
  0.5013178591242252  0.4458960452953867  0.6186386503248875
  0.5232613363300139  0.5486883693108791  0.4429380404647002
  0.5963971371593433  0.4723605827577869  0.4587729397330725
  0.4478752273329135  0.4267115436342547  0.5340773561804294
  0.4943911072199512  0.4427768911607937  0.4442258292020216
  0.5524579922364817  0.4820862932458750  0.3697806900016132
 
  0.00000000E+00  0.00000000E+00  0.00000000E+00
  0.00000000E+00  0.00000000E+00  0.00000000E+00
  0.00000000E+00  0.00000000E+00  0.00000000E+00
  0.00000000E+00  0.00000000E+00  0.00000000E+00
  0.00000000E+00  0.00000000E+00  0.00000000E+00
  0.00000000E+00  0.00000000E+00  0.00000000E+00
  0.00000000E+00  0.00000000E+00  0.00000000E+00
  0.00000000E+00  0.00000000E+00  0.00000000E+00
  0.00000000E+00  0.00000000E+00  0.00000000E+00
  0.00000000E+00  0.00000000E+00  0.00000000E+00
