Ni 
 1.0000000000000000
    22.0484995901640417    0.0000000000000000    0.0000000000000000
     0.0000000000000000   21.7551052607294864    0.0000000000000000
     0.0000000000000000    0.0000000000000000   22.9266914871422962
 Ni 
  10
Cartesian
  9.5993952241378544 11.3898892428126626 13.4817063434220508
 10.7816628050381720 13.0238277569789211 12.1469927788082188
  9.4505448279161790 11.2998253964379956 11.0616264220856007
 11.6612524196990517 10.7801540352070511 12.2273448656521566
 11.0515857580347898  9.6854960577934825 14.2741976318112354
 11.5614804843668608 12.0030547718728400 10.0769240882922677
 13.2596593950955519 10.3111097925140758 10.4505567408084001
  9.7650849998157696  9.2292822767929472 12.3094542678470749
 10.9477965492733311  9.5865366622533799 10.1932162282174641
 12.1828533982904776 10.4607315179820350  8.3427410536480906
