Au                                      
    1.000000000000000     
    22.6418499335821792    0.0000000000000000    0.0000000000000000
     0.0000000000000000   24.2944298383304442    0.0000000000000000
     0.0000000000000000    0.0000000000000000   21.3916136925080451
   Au
     8
Direct
  0.5762544880085596  0.6289483525810792  0.4208155375132734
  0.4867080178570453  0.5725646619435721  0.4632637312219515
  0.6025281798422274  0.5526633690163416  0.5067533469694107
  0.4638541628072053  0.4579641385625662  0.4739051349038002
  0.5252188281588072  0.3709022474116605  0.4440922155834778
  0.3981816085651385  0.5331882869187106  0.5324526639981740
  0.5810173004246677  0.4442476796715942  0.5164548878515093
  0.5114297819239889  0.5169567619029445  0.5786117136327307
 
  0.00000000E+00  0.00000000E+00  0.00000000E+00
  0.00000000E+00  0.00000000E+00  0.00000000E+00
  0.00000000E+00  0.00000000E+00  0.00000000E+00
  0.00000000E+00  0.00000000E+00  0.00000000E+00
  0.00000000E+00  0.00000000E+00  0.00000000E+00
  0.00000000E+00  0.00000000E+00  0.00000000E+00
  0.00000000E+00  0.00000000E+00  0.00000000E+00
  0.00000000E+00  0.00000000E+00  0.00000000E+00
