Au 
 1.0000000000000000
    22.6418499335821792    0.0000000000000000    0.0000000000000000
     0.0000000000000000   24.2944298383304442    0.0000000000000000
     0.0000000000000000    0.0000000000000000   21.3916136925080451
 Au 
   8
Cartesian
 13.0531663236757378 15.1907996029768650  9.0968632887625560
 11.0502816452823716 13.8605262961951627  9.9346222341504262
 13.5681894788889608 13.4131639544062846 10.7692942232049340
 10.5483478200040643 11.1635402297313622 10.1562400704517621
 11.9323381696162460  9.1058319478559966  9.5793099045508825
  9.1026941259818859 12.9397301844714203 11.4143791755408817
 13.0883647205017084 10.8210509833783899 10.9736039896524211
 11.5114412487981816 12.5643274276694168 12.2805492364643083
