Au Cu                                   
    1.000000000000000     
    22.1454616808045337    0.0000000000000000    0.0000000000000000
     0.0000000000000000   21.9699073999509800    0.0000000000000000
     0.0000000000000000    0.0000000000000000   22.1067794337017780
   Au   Cu
     4     4
Direct
  0.5947706829399088  0.4616838413285780  0.5830093516701572
  0.4644090549923423  0.6015774693844959  0.5547158228506393
  0.4148757564663511  0.4160489337684315  0.5336774937274250
  0.5311151007097018  0.5002515621656125  0.4054804627636523
  0.4839607998071462  0.4917748919814658  0.5866136697884916
  0.5521746620917881  0.5414363523781056  0.5108885928884572
  0.5229818631308227  0.4317517829440947  0.4981130222910009
  0.4461874081441575  0.5141362738615417  0.4815492697114724
 
  0.00000000E+00  0.00000000E+00  0.00000000E+00
  0.00000000E+00  0.00000000E+00  0.00000000E+00
  0.00000000E+00  0.00000000E+00  0.00000000E+00
  0.00000000E+00  0.00000000E+00  0.00000000E+00
  0.00000000E+00  0.00000000E+00  0.00000000E+00
  0.00000000E+00  0.00000000E+00  0.00000000E+00
  0.00000000E+00  0.00000000E+00  0.00000000E+00
  0.00000000E+00  0.00000000E+00  0.00000000E+00
