Au Cu 
 1.0000000000000000
    22.1454616808045337    0.0000000000000000    0.0000000000000000
     0.0000000000000000   21.9699073999509800    0.0000000000000000
     0.0000000000000000    0.0000000000000000   22.1067794337017780
 Au  Cu 
   4   4
Cartesian
 13.1513538683617401 10.1954147993024709 12.6904378013559409
 10.2112791576137560 13.0380471758240724 12.2904064519374234
  9.1884386830501104  9.3242724428570671 11.8109948799147091
 11.8673071789776188 10.9305390871198096  9.1241095764402136
 10.7585944892098127 10.7693082212827598 13.0305233748184790
 12.2221310235279699 11.9856056825075843 11.3051370229085109
 11.5343781418565285  9.4101264639917055 11.0211581489243002
  9.8803451616882416 11.3181040935389188 10.5598486883570839
