Pd                                      
    1.000000000000000     
    23.4729748264112246    0.0000000000000000    0.0000000000000000
     0.0000000000000000   24.2503240000426246    0.0000000000000000
     0.0000000000000000    0.0000000000000000   25.0569449170688969
   Pd
    16
Direct
  0.3930845214098273  0.4593223397864205  0.4076231919215706
  0.4524643417593182  0.3989249619337423  0.4762103578652757
  0.5520019857252939  0.4311913094009663  0.5126862612168841
  0.5045830362746856  0.4723858946182504  0.4133795956543983
  0.4321780751081585  0.5588464279965675  0.4260489106217768
  0.3919016923592080  0.4864282593886861  0.5104566734687097
  0.4630022516362367  0.4277066326799152  0.5786562115247319
  0.4984621516889454  0.6340136153219582  0.4729923412180874
  0.6400430056856919  0.4884036201957226  0.5460527852323317
  0.4306279282186469  0.5289808233228100  0.6042281817240771
  0.6075114657815085  0.4954788376202093  0.4444615448554372
  0.4935295316634911  0.5234322208581017  0.5052584017569435
  0.4048133185916587  0.5976665170391701  0.5232558849503085
  0.5429461898023493  0.5072915971222922  0.5963717293836481
  0.5865506579786038  0.5768266492606947  0.5111509281289155
  0.5030975540599991  0.6109977526033905  0.5779494488627966
 
  0.00000000E+00  0.00000000E+00  0.00000000E+00
  0.00000000E+00  0.00000000E+00  0.00000000E+00
  0.00000000E+00  0.00000000E+00  0.00000000E+00
  0.00000000E+00  0.00000000E+00  0.00000000E+00
  0.00000000E+00  0.00000000E+00  0.00000000E+00
  0.00000000E+00  0.00000000E+00  0.00000000E+00
  0.00000000E+00  0.00000000E+00  0.00000000E+00
  0.00000000E+00  0.00000000E+00  0.00000000E+00
  0.00000000E+00  0.00000000E+00  0.00000000E+00
  0.00000000E+00  0.00000000E+00  0.00000000E+00
  0.00000000E+00  0.00000000E+00  0.00000000E+00
  0.00000000E+00  0.00000000E+00  0.00000000E+00
  0.00000000E+00  0.00000000E+00  0.00000000E+00
  0.00000000E+00  0.00000000E+00  0.00000000E+00
  0.00000000E+00  0.00000000E+00  0.00000000E+00
  0.00000000E+00  0.00000000E+00  0.00000000E+00
