Pd 
 1.0000000000000000
    23.4729748264112246    0.0000000000000000    0.0000000000000000
     0.0000000000000000   24.2503240000426246    0.0000000000000000
     0.0000000000000000    0.0000000000000000   25.0569449170688969
 Pd 
  16
Cartesian
  9.2274847616653108 11.1377868420708701 10.2135497314144761
 10.6196800844101968  9.6728191368400491 11.9300135994967800
 12.9584447608216760 10.4558427021904539 12.8475080402746347
 11.8442761978112063 11.4539474856953856 10.3594405472013538
 10.1435829531989761 13.5530857122578059 10.6744714810333559
  9.1994500041136433 11.7940299735299075 12.7897549072527852
 10.8670940365440849 10.3730695972294242 14.5015111580730469
 11.6993833659290889 15.3756272761596069 11.8522578953719595
 15.0233525693379928 11.8441304927172713 13.6828826088534328
 10.1077104564804525 12.8297287379331788 15.1406109721253088
 14.2599840191703464 12.0148044395096569 11.1353062268607506
 11.5833435760420507 12.6937553406039729 12.6578440655447775
  9.5050896441394404 14.4960547174326422 13.1116301192401092
 12.7472370521005285 12.2998129687348641 14.9415170459297553
 13.7666884924493154 13.9908917994585043 12.8098692802957874
 11.8085318289136083 14.8162822811234101 14.4830335848974681
