Al                                      
    1.000000000000000     
    22.0374811638366594    0.0000000000000000    0.0000000000000000
     0.0000000000000000   21.2181103769734811    0.0000000000000000
     0.0000000000000000    0.0000000000000000   20.8448292289340067
   Al
     7
Direct
  0.5010511678463914  0.5740224443740871  0.5671660400064198
  0.4289792310134430  0.5428381618861380  0.4744191346343030
  0.5380690871994247  0.5756076858522476  0.4424644843477950
  0.4119423307804340  0.4192766771987237  0.4687763146948782
  0.5215405618845992  0.4550228038368473  0.4307294132004245
  0.4838129447850861  0.4534266892835674  0.5646224236010013
  0.5886346928493609  0.4928699975663520  0.5255408220440216
 
  0.00000000E+00  0.00000000E+00  0.00000000E+00
  0.00000000E+00  0.00000000E+00  0.00000000E+00
  0.00000000E+00  0.00000000E+00  0.00000000E+00
  0.00000000E+00  0.00000000E+00  0.00000000E+00
  0.00000000E+00  0.00000000E+00  0.00000000E+00
  0.00000000E+00  0.00000000E+00  0.00000000E+00
  0.00000000E+00  0.00000000E+00  0.00000000E+00
