Al 
 1.0000000000000000
    22.0374811638366594    0.0000000000000000    0.0000000000000000
     0.0000000000000000   21.2181103769734811    0.0000000000000000
     0.0000000000000000    0.0000000000000000   20.8448292289340067
 Al 
   7
Cartesian
 11.0419056735331473 12.1796715835895188 11.8224792483846048
  9.4536217231358624 11.5180000357334595  9.8891858443907701
 11.8576873740001414 12.2133074122473300  9.2230966160981502
  9.0781713551607091  8.8962588152932334  9.7715622263837858
 11.4934403087086885  9.6547240758501793  8.9784810620417836
 10.6620186575217168  9.6208575410843178 11.7694579987897452
 12.9720259560486024 10.4577700098614699 10.9548086883411582
