Au                                      
    1.000000000000000     
    21.6172085722344427    0.0000000000000000    0.0000000000000000
     0.0000000000000000   22.6570251115349528    0.0000000000000000
     0.0000000000000000    0.0000000000000000   22.7111264178274759
   Au
     8
Direct
  0.3994075414261696  0.4823534270228159  0.5613151377167106
  0.5413706799468255  0.5372089730615731  0.4297990791497550
  0.6044043758263424  0.4762972268646604  0.5115249045641179
  0.4890630776032907  0.4393976386536995  0.4844652225219229
  0.5097240089862052  0.5447489670218029  0.5484329218117673
  0.5066787720646635  0.5969402058194682  0.3418495135355783
  0.4207214153132176  0.5814914667024994  0.6175911185000641
  0.3823032294044639  0.3865817099538886  0.4982591003424415
 
  0.00000000E+00  0.00000000E+00  0.00000000E+00
  0.00000000E+00  0.00000000E+00  0.00000000E+00
  0.00000000E+00  0.00000000E+00  0.00000000E+00
  0.00000000E+00  0.00000000E+00  0.00000000E+00
  0.00000000E+00  0.00000000E+00  0.00000000E+00
  0.00000000E+00  0.00000000E+00  0.00000000E+00
  0.00000000E+00  0.00000000E+00  0.00000000E+00
  0.00000000E+00  0.00000000E+00  0.00000000E+00
