Au 
 1.0000000000000000
    21.6172085722344427    0.0000000000000000    0.0000000000000000
     0.0000000000000000   22.6570251115349528    0.0000000000000000
     0.0000000000000000    0.0000000000000000   22.7111264178274759
 Au 
   8
Cartesian
  8.6347453443914670 10.9281512807116616 12.7487255123022898
 11.7035323467021382 12.1714695742104873  9.7603163696418438
 13.0648981354099263 10.7914689117506022 11.6173941805667891
 10.5711665782279702  9.9560527883931194 11.0032487744461562
 11.0180788035360457 12.3423932512107175 12.4556921768529261
 10.9528258134992420 13.5244160419134101  7.7646631948714164
  9.0952548928755927 13.1749888372382831 14.0255978619407884
  8.2651532696142400  8.7591703105528964 11.3152722105347578
