Al                                      
    1.000000000000000     
    22.0374811638366594    0.0000000000000000    0.0000000000000000
     0.0000000000000000   21.2181103769734811    0.0000000000000000
     0.0000000000000000    0.0000000000000000   20.8448292289340067
   Al
     7
Direct
  0.5009994348328864  0.5739252315502761  0.5671133485776925
  0.4289158140488468  0.5429214976221445  0.4744646808140753
  0.5379341771445177  0.5755168109232522  0.4422883708586107
  0.4121810429274677  0.4194660221813217  0.4687874782014875
  0.5216400327410479  0.4551451672237419  0.4307950431659076
  0.4837910269723720  0.4534339537453645  0.5647731115463024
  0.5885684877771432  0.4926557767279387  0.5254965994630569
 
  0.00000000E+00  0.00000000E+00  0.00000000E+00
  0.00000000E+00  0.00000000E+00  0.00000000E+00
  0.00000000E+00  0.00000000E+00  0.00000000E+00
  0.00000000E+00  0.00000000E+00  0.00000000E+00
  0.00000000E+00  0.00000000E+00  0.00000000E+00
  0.00000000E+00  0.00000000E+00  0.00000000E+00
  0.00000000E+00  0.00000000E+00  0.00000000E+00
