Al 
 1.0000000000000000
    22.0374811638366594    0.0000000000000000    0.0000000000000000
     0.0000000000000000   21.2181103769734811    0.0000000000000000
     0.0000000000000000    0.0000000000000000   20.8448292289340067
 Al 
   7
Cartesian
 11.1510745188889526 12.2867507130438653 11.8621449954388218
  9.4260110913796478 11.4124295287715469  9.8722312475407197
 11.9723741047360672 12.3282383967889437  9.2515856490585300
  8.9120581925831814  8.7534919312691244  9.7355175488404484
 11.4085866536867151  9.6223636057995829  8.9994618640252639
 10.5959619802843612  9.5770874067079408 11.6942976870721971
 13.0928045084350337 10.5602278907708929 10.9938326945028102
