Ni Pd                                   
    1.000000000000000     
    23.2502041636362620    0.0000000000000000    0.0000000000000000
     0.0000000000000000   22.7654370083907551    0.0000000000000000
     0.0000000000000000    0.0000000000000000   24.1928579443619860
   Ni   Pd
     6     4
Direct
  0.5103687643831343  0.5115718733789161  0.5567636702054181
  0.5284936210802009  0.4821658252343314  0.4646760285386774
  0.4734904905158659  0.5961760521359788  0.5268514866778271
  0.4400331401986485  0.4590822117933965  0.5070065241878271
  0.4916922749987565  0.5667942969982737  0.4347468560416855
  0.4032898149562953  0.5433192455766176  0.4770372716503721
  0.6042432030821311  0.5291955588170357  0.5170135882882694
  0.4416488693352851  0.4752971486057328  0.4043895345023933
  0.4074734601068234  0.5304271989600574  0.5797835161697799
  0.5617515861006709  0.6268123539907061  0.4823987664854488
 
  0.00000000E+00  0.00000000E+00  0.00000000E+00
  0.00000000E+00  0.00000000E+00  0.00000000E+00
  0.00000000E+00  0.00000000E+00  0.00000000E+00
  0.00000000E+00  0.00000000E+00  0.00000000E+00
  0.00000000E+00  0.00000000E+00  0.00000000E+00
  0.00000000E+00  0.00000000E+00  0.00000000E+00
  0.00000000E+00  0.00000000E+00  0.00000000E+00
  0.00000000E+00  0.00000000E+00  0.00000000E+00
  0.00000000E+00  0.00000000E+00  0.00000000E+00
  0.00000000E+00  0.00000000E+00  0.00000000E+00
