Ni Pd 
 1.0000000000000000
    23.2502041636362620    0.0000000000000000    0.0000000000000000
     0.0000000000000000   22.7654370083907551    0.0000000000000000
     0.0000000000000000    0.0000000000000000   24.1928579443619860
 Ni  Pd 
   6   4
Cartesian
 11.8666878378787697 11.6456186267479254 13.4740308251765271
 12.2880548717541220 10.9730528126441591 11.2391785198762673
 11.0068306308004598 13.5751269665367751 12.7473019441135733
 10.2337394546373233 10.4489957044300912 12.2673916297127992
 11.4310849020009950 12.9045532320395004 10.5138196405968234
  9.3783779424534401 12.3721581765052999 11.5401836742061104
 14.0471673397928569 12.0501664185784847 12.5074059356990386
 10.2666037951508180 10.8208666660822157  9.7862822244959027
  9.4731030035723904 12.0741729441992778 14.0237169174203444
 13.0621244402425827 14.2665764961372741 11.6714780223038179
