Cu                                      
    1.000000000000000     
    23.9996738194352304    0.0000000000000000    0.0000000000000000
     0.0000000000000000   23.5254101268946840    0.0000000000000000
     0.0000000000000000    0.0000000000000000   22.5455411029407955
   Cu
    13
Direct
  0.4644654671013251  0.4233606553289596  0.5763629336817996
  0.3789299145277994  0.4818071894424057  0.5579697797773474
  0.4598571967965468  0.4822060010341999  0.4882160252697136
  0.4642530962512115  0.5235890704765336  0.5944420486145480
  0.5484449163229788  0.4788207847118526  0.5509738392881778
  0.4113465090429778  0.5688591725823432  0.5130752592361874
  0.5534099994484961  0.5048672629846395  0.4448384034227019
  0.5158642036325732  0.5764948589333525  0.5207328089739119
  0.4743697974500656  0.5644376426039734  0.4234571753113418
  0.5688370904280382  0.6057739643645336  0.4333702940584920
  0.6141397655427914  0.5549822393135243  0.5141422084992545
  0.3991790999244679  0.4008694316028685  0.4985097032835564
  0.6296271539451386  0.4570841147742353  0.4901564006613626
 
  0.00000000E+00  0.00000000E+00  0.00000000E+00
  0.00000000E+00  0.00000000E+00  0.00000000E+00
  0.00000000E+00  0.00000000E+00  0.00000000E+00
  0.00000000E+00  0.00000000E+00  0.00000000E+00
  0.00000000E+00  0.00000000E+00  0.00000000E+00
  0.00000000E+00  0.00000000E+00  0.00000000E+00
  0.00000000E+00  0.00000000E+00  0.00000000E+00
  0.00000000E+00  0.00000000E+00  0.00000000E+00
  0.00000000E+00  0.00000000E+00  0.00000000E+00
  0.00000000E+00  0.00000000E+00  0.00000000E+00
  0.00000000E+00  0.00000000E+00  0.00000000E+00
  0.00000000E+00  0.00000000E+00  0.00000000E+00
  0.00000000E+00  0.00000000E+00  0.00000000E+00
