Cu 
 1.0000000000000000
    23.9996738194352304    0.0000000000000000    0.0000000000000000
     0.0000000000000000   23.5254101268946840    0.0000000000000000
     0.0000000000000000    0.0000000000000000   22.5455411029407955
 Cu 
  13
Cartesian
 11.1473221785863412  9.9626051173839976 12.9944297914822595
  9.0943583146839568 11.3352783852089107 12.5796129427027719
 11.0366488452399842 11.3449085206004643 11.0055242966506963
 11.1386924253231996 12.3146579319618130 13.4024376995859882
 13.1640772897590335 11.2655961921017038 12.4225785177342996
  9.8705110269130643 13.3824132030438072 11.5658249102508162
 13.2832154032123668 11.8790988246117291 10.0284645413637286
 12.3802961020684616 13.5616423621002333 11.7417578453236153
 11.3852758553807885 13.2801729634023236  9.5453687541282299
 13.6524108843219523 14.2481988010320677  9.7717059203643952
 14.7396562574836878 13.0562120211450594 11.5940725376605940
  9.5827711562919156  9.4298735094446453 11.2436356921318321
 15.1080307720370079 10.7517184321940586 11.0459971216024684
