Ni Pd                                   
    1.000000000000000     
    22.0899813031996857    0.0000000000000000    0.0000000000000000
     0.0000000000000000   21.6872348476615713    0.0000000000000000
     0.0000000000000000    0.0000000000000000   24.2059569777757915
   Ni   Pd
     6     4
Direct
  0.5489729127820207  0.5357014820841930  0.5052598284558242
  0.4944042884426201  0.5246098170310517  0.6204394322481411
  0.5076435394815668  0.4520311186904606  0.5514016917184762
  0.4091301714914302  0.4747401631381202  0.5861581953409457
  0.4278022371304109  0.4703332804044099  0.4917582054088024
  0.4533480740345245  0.5597148539917460  0.5384732966915317
  0.5444070395900936  0.6153946816964292  0.5781852252286955
  0.6003352342971112  0.5046938799181253  0.5916122197916950
  0.5259615634646645  0.4440810198839782  0.4481994505348569
  0.4701773047377895  0.5550507298721491  0.4348202778724496
 
  0.00000000E+00  0.00000000E+00  0.00000000E+00
  0.00000000E+00  0.00000000E+00  0.00000000E+00
  0.00000000E+00  0.00000000E+00  0.00000000E+00
  0.00000000E+00  0.00000000E+00  0.00000000E+00
  0.00000000E+00  0.00000000E+00  0.00000000E+00
  0.00000000E+00  0.00000000E+00  0.00000000E+00
  0.00000000E+00  0.00000000E+00  0.00000000E+00
  0.00000000E+00  0.00000000E+00  0.00000000E+00
  0.00000000E+00  0.00000000E+00  0.00000000E+00
  0.00000000E+00  0.00000000E+00  0.00000000E+00
