Ni Pd                                   
    1.000000000000000     
    20.8905601628212523    0.0000000000000000    0.0000000000000000
     0.0000000000000000   22.2949211172361430    0.0000000000000000
     0.0000000000000000    0.0000000000000000   23.1736788655876396
   Ni   Pd
     6     4
Direct
  0.4583262080708761  0.4581277024842286  0.5692680393837499
  0.5372278077053519  0.4035349624727099  0.5204812031812481
  0.4517905774486916  0.5290123689882852  0.4967215550643691
  0.4398496302738066  0.4268310831450799  0.4741397395907321
  0.5521164189345760  0.4942169262025596  0.4733954692565235
  0.5321945859836456  0.4075851829046259  0.4213849687793347
  0.4648136927298412  0.5642850642530649  0.5973478697848134
  0.5705767427719499  0.4944056607241480  0.5784070679606732
  0.5467835397853892  0.5955895107491027  0.5134695013839405
  0.4685965197815706  0.4993873738676531  0.3945854720841313
 
  0.00000000E+00  0.00000000E+00  0.00000000E+00
  0.00000000E+00  0.00000000E+00  0.00000000E+00
  0.00000000E+00  0.00000000E+00  0.00000000E+00
  0.00000000E+00  0.00000000E+00  0.00000000E+00
  0.00000000E+00  0.00000000E+00  0.00000000E+00
  0.00000000E+00  0.00000000E+00  0.00000000E+00
  0.00000000E+00  0.00000000E+00  0.00000000E+00
  0.00000000E+00  0.00000000E+00  0.00000000E+00
  0.00000000E+00  0.00000000E+00  0.00000000E+00
  0.00000000E+00  0.00000000E+00  0.00000000E+00
