Ni Pd 
 1.0000000000000000
    22.7688291199892774    0.0000000000000000    0.0000000000000000
     0.0000000000000000   22.2204182151729768    0.0000000000000000
     0.0000000000000000    0.0000000000000000   22.9872670110836914
 Ni  Pd 
   6   4
Cartesian
 13.0093573553663031 11.3164679335153302 10.8525176192089283
  9.3983793365443287 12.2861960333073270 11.8304055890006659
 12.8335913176511820  9.2961813910685791 11.9228369717010967
 11.0499028538485575 10.7501572557246572 12.2500277327549796
 10.7897907404385158 11.8554495364119870 10.0348318358671005
 11.4342252371450215  9.5124629364950692 10.0747729046532903
 11.6858304085313929 13.1502365326536221 12.0053561162362215
  8.9980192095110176 10.1544457976364715 10.7110642925261477
 12.5052151890884904 11.0205990768040483  8.5087755954924127
 10.5823011286975017  8.3336009738451242 12.0494873283800175
