Cu                                      
    1.000000000000000     
    24.8453158644703791    0.0000000000000000    0.0000000000000000
     0.0000000000000000   23.0302307925898724    0.0000000000000000
     0.0000000000000000    0.0000000000000000   23.5547363495209545
   Cu
    13
Direct
  0.5005322909934186  0.4364860768635495  0.5318449307101990
  0.4338430840994861  0.5971803739277164  0.5355569913933604
  0.3766963676570630  0.5340498682054539  0.5917483078224598
  0.4747709677126459  0.5225202224608007  0.5898792510952883
  0.5299431820207295  0.6094691091590516  0.5529778774480640
  0.5653972036011847  0.5110149660797693  0.5547132226894403
  0.4163461795542055  0.4956587235787597  0.5029423783781228
  0.4201951046942651  0.3887210747835937  0.4936927240456069
  0.5016538284365185  0.5419427103329856  0.4797429206589324
  0.5713232795923778  0.4711624282882816  0.4594484662083136
  0.4140379481412987  0.4365712406748622  0.5854582319239553
  0.5946253121300599  0.5742293867744198  0.4798445510236567
  0.4785853925793676  0.4475128851802450  0.4344361021448689
 
  0.00000000E+00  0.00000000E+00  0.00000000E+00
  0.00000000E+00  0.00000000E+00  0.00000000E+00
  0.00000000E+00  0.00000000E+00  0.00000000E+00
  0.00000000E+00  0.00000000E+00  0.00000000E+00
  0.00000000E+00  0.00000000E+00  0.00000000E+00
  0.00000000E+00  0.00000000E+00  0.00000000E+00
  0.00000000E+00  0.00000000E+00  0.00000000E+00
  0.00000000E+00  0.00000000E+00  0.00000000E+00
  0.00000000E+00  0.00000000E+00  0.00000000E+00
  0.00000000E+00  0.00000000E+00  0.00000000E+00
  0.00000000E+00  0.00000000E+00  0.00000000E+00
  0.00000000E+00  0.00000000E+00  0.00000000E+00
  0.00000000E+00  0.00000000E+00  0.00000000E+00
