Cu 
 1.0000000000000000
    24.8453158644703791    0.0000000000000000    0.0000000000000000
     0.0000000000000000   23.0302307925898724    0.0000000000000000
     0.0000000000000000    0.0000000000000000   23.5547363495209545
 Cu 
  13
Cartesian
 12.4519196762851010 10.0963449336892399 12.4953693239919374
 10.7256715645075698 13.7995401599279912 12.5196168627387685
  9.3769819720821754 12.2969941591504757 13.9222867009969384
 11.8183536916096497 12.0589516770529972 13.8628234861223163
 13.1625022325186691 14.0089926903012429 13.0785000251934047
 14.1876535513753605 11.7505380050518724 13.1563347633085357
 10.2563276655207041 11.4069800890445130 11.8116874160412539
 10.4593446205798752  8.9705193487148680 11.6347692051335443
 12.4299667076560691 12.4208442454079595 11.3698899372029256
 14.1995961109252011 10.8197140528174458 10.8509240310482227
 10.3512947159746229 10.0300852444731028 13.8522148225269461
 14.7259968523756122 13.2152128743877082 11.3005531392985699
 11.8320448784134076 10.3537321210296813 10.1355351797487483
