Ni Pd                                   
    1.000000000000000     
    23.4033703473286749    0.0000000000000000    0.0000000000000000
     0.0000000000000000   25.7153174749646176    0.0000000000000000
     0.0000000000000000    0.0000000000000000   21.5303817743277577
   Ni   Pd
     6     4
Direct
  0.5207777161852936  0.4773239993041830  0.4367453862651035
  0.4784496285958599  0.5462106806466956  0.5305125534501607
  0.5412826043120768  0.4273036681831082  0.5226556073182925
  0.4496843453671746  0.4587096999112205  0.5081177958746129
  0.4334386151668194  0.5288709376893449  0.4300223166481518
  0.5237331489468038  0.5698887070199838  0.4395773693510744
  0.4998341641945204  0.4787240085806050  0.6072525088726084
  0.4318357188863783  0.4382510529205951  0.3996001429182423
  0.5797267994381151  0.5173698337680699  0.5198755804944021
  0.4381836763203045  0.6172269665650972  0.4699985423628797
 
  0.00000000E+00  0.00000000E+00  0.00000000E+00
  0.00000000E+00  0.00000000E+00  0.00000000E+00
  0.00000000E+00  0.00000000E+00  0.00000000E+00
  0.00000000E+00  0.00000000E+00  0.00000000E+00
  0.00000000E+00  0.00000000E+00  0.00000000E+00
  0.00000000E+00  0.00000000E+00  0.00000000E+00
  0.00000000E+00  0.00000000E+00  0.00000000E+00
  0.00000000E+00  0.00000000E+00  0.00000000E+00
  0.00000000E+00  0.00000000E+00  0.00000000E+00
  0.00000000E+00  0.00000000E+00  0.00000000E+00
