Ni Pd 
 1.0000000000000000
    23.4033703473286749    0.0000000000000000    0.0000000000000000
     0.0000000000000000   25.7153174749646176    0.0000000000000000
     0.0000000000000000    0.0000000000000000   21.5303817743277577
 Ni  Pd 
   6   4
Cartesian
 11.4095285303704674 12.4017514115088758 10.3724430018428748
 11.1499428608088031 14.5799056109626992 11.4481578317086647
 13.0266016005831027 10.9988452745879783 11.4778139920055917
 11.1670750980240303 10.0501955980222455 10.1717610419012860
  9.8586796149889597 13.9613008183336209  9.3606263766796456
 12.3157201453205722 14.3693294759614236  9.2593379296066338
 11.6506616092720847 12.5389054453641240 12.8448062364206965
  9.7970498049432138 11.5228166589498517  8.8034631260632032
 13.4558799818492236 13.4831195740419005 11.3287922297881760
 10.7739113315886357 16.2102392636035439  9.6642788314640757
