Ni Pd                                   
    1.000000000000000     
    24.4032569543962268    0.0000000000000000    0.0000000000000000
     0.0000000000000000   22.2202017400998493    0.0000000000000000
     0.0000000000000000    0.0000000000000000   21.6062152281390354
   Ni   Pd
     6     4
Direct
  0.5152649293014107  0.4300261020651366  0.4797244464972014
  0.5172960322431692  0.4431104696180148  0.3772334889794813
  0.4655643149425450  0.5157076939340695  0.4266028856567256
  0.5103281497701694  0.5365230313272480  0.5207665695608992
  0.5868752833710051  0.4757403462708522  0.5235794400391165
  0.4356794564715401  0.4731599766798950  0.5179039897813392
  0.5102031339173866  0.4504213763823463  0.5959976678961092
  0.6053811533280928  0.4117701135875335  0.4294825881818371
  0.5676994931562697  0.5313989137411163  0.4241029078239454
  0.4262688423708460  0.4115235118182282  0.4199997910171411
 
  0.00000000E+00  0.00000000E+00  0.00000000E+00
  0.00000000E+00  0.00000000E+00  0.00000000E+00
  0.00000000E+00  0.00000000E+00  0.00000000E+00
  0.00000000E+00  0.00000000E+00  0.00000000E+00
  0.00000000E+00  0.00000000E+00  0.00000000E+00
  0.00000000E+00  0.00000000E+00  0.00000000E+00
  0.00000000E+00  0.00000000E+00  0.00000000E+00
  0.00000000E+00  0.00000000E+00  0.00000000E+00
  0.00000000E+00  0.00000000E+00  0.00000000E+00
  0.00000000E+00  0.00000000E+00  0.00000000E+00
