Ni Pd 
 1.0000000000000000
    24.4032569543962268    0.0000000000000000    0.0000000000000000
     0.0000000000000000   22.2202017400998493    0.0000000000000000
     0.0000000000000000    0.0000000000000000   21.6062152281390354
 Ni  Pd 
   6   4
Cartesian
 12.5557518218031383  9.6246235302676446 10.3603995837590617
 12.6308649278533576  9.7638241032119151  7.9532490246188958
 11.3228996992455766 11.4864392091549927  9.1731319615058737
 12.4574238061242664 11.9675122580746667 11.2973147483268637
 14.5063833563597875 10.5671250307336777 11.4329823070146190
 10.4855163510940717 10.4753824142739074 11.2782180882350751
 12.4474254900129377 10.0271799846993410 12.7923642527854398
 14.7466752426042422  9.2601774175562976  9.2669470864013697
 13.8313215146882964 11.6120495802176205  9.2178406456079092
 10.4621636107621168  9.1924882078392738  9.1093650991945037
