Ni Pd                                   
    1.000000000000000     
    22.9211244833179038    0.0000000000000000    0.0000000000000000
     0.0000000000000000   23.7270811866192268    0.0000000000000000
     0.0000000000000000    0.0000000000000000   22.6526915961209774
   Ni   Pd
     6     4
Direct
  0.4832717609943659  0.4771543212667910  0.5196838464585100
  0.5691815920422312  0.4447677822252590  0.5584838104106939
  0.4157314645879508  0.5235249172270814  0.4575146278550041
  0.4576122233703428  0.5696375515312990  0.5458906778555321
  0.4875712671095668  0.4675081478996981  0.4175516617385974
  0.5101157508582748  0.5575880880855995  0.4602173777165627
  0.5614417181096352  0.5480776393908252  0.5636361586890962
  0.5268151475751672  0.3883323392881881  0.4771822445306294
  0.4265399501691058  0.6256245061111557  0.4606893920948246
  0.5898071976355018  0.4849584679041460  0.4621255996223929
 
  0.00000000E+00  0.00000000E+00  0.00000000E+00
  0.00000000E+00  0.00000000E+00  0.00000000E+00
  0.00000000E+00  0.00000000E+00  0.00000000E+00
  0.00000000E+00  0.00000000E+00  0.00000000E+00
  0.00000000E+00  0.00000000E+00  0.00000000E+00
  0.00000000E+00  0.00000000E+00  0.00000000E+00
  0.00000000E+00  0.00000000E+00  0.00000000E+00
  0.00000000E+00  0.00000000E+00  0.00000000E+00
  0.00000000E+00  0.00000000E+00  0.00000000E+00
  0.00000000E+00  0.00000000E+00  0.00000000E+00
