Ni Pd 
 1.0000000000000000
    22.9211244833179038    0.0000000000000000    0.0000000000000000
     0.0000000000000000   23.7270811866192268    0.0000000000000000
     0.0000000000000000    0.0000000000000000   22.6526915961209774
 Ni  Pd 
   6   4
Cartesian
 11.1020061289479930 11.3143712236293972 11.8004963380417571
 13.1512895039118565 10.4245090029809599 12.7845784511920790
  9.4298808138834911 12.4377506219328033 10.4256368771917405
 10.4052890212374631 13.5831875835725846 12.4172199724896455
 11.2203278707662371 11.1152327056779736  9.3676534137464600
 11.7360328678070509 13.3189765952378902 10.3645895234526364
 12.8389418630832317 12.9200428376556751 12.6102362353553303
 12.1385450878809493  9.2831127361045098 10.8028909059889244
  9.7983459879192942 14.8377689304495455 10.4076921544712668
 13.4287734763237108 11.4688325987847684 10.5376495309645666
