Cu                                      
    1.000000000000000     
    25.7153446083226740    0.0000000000000000    0.0000000000000000
     0.0000000000000000   22.3931623737955405    0.0000000000000000
     0.0000000000000000    0.0000000000000000   24.0874192603664525
   Cu
    13
Direct
  0.5082754647001464  0.5932580787381515  0.4158008658247792
  0.4639316195602918  0.5057990674431414  0.4721634254281657
  0.5392342749362813  0.4909209616318020  0.4132110833550832
  0.6048151606180551  0.5651914902262468  0.4186726521620456
  0.5239063953881271  0.4205335086137432  0.4870906193114921
  0.4520238802582060  0.6080505265544035  0.4949817904000477
  0.3964901391990437  0.5321807927249409  0.5405302872741515
  0.6087576603979583  0.4770208563394215  0.4797738231453461
  0.4568098677259793  0.4464710838875435  0.5560727848395466
  0.6020513513616216  0.3895874744213191  0.5353371763064586
  0.5476108757644061  0.5592910566171965  0.4992719055835491
  0.4837546704300029  0.5472921728904042  0.5709585096455468
  0.5523485144984083  0.4748982107809875  0.5662596033730001
 
  0.00000000E+00  0.00000000E+00  0.00000000E+00
  0.00000000E+00  0.00000000E+00  0.00000000E+00
  0.00000000E+00  0.00000000E+00  0.00000000E+00
  0.00000000E+00  0.00000000E+00  0.00000000E+00
  0.00000000E+00  0.00000000E+00  0.00000000E+00
  0.00000000E+00  0.00000000E+00  0.00000000E+00
  0.00000000E+00  0.00000000E+00  0.00000000E+00
  0.00000000E+00  0.00000000E+00  0.00000000E+00
  0.00000000E+00  0.00000000E+00  0.00000000E+00
  0.00000000E+00  0.00000000E+00  0.00000000E+00
  0.00000000E+00  0.00000000E+00  0.00000000E+00
  0.00000000E+00  0.00000000E+00  0.00000000E+00
  0.00000000E+00  0.00000000E+00  0.00000000E+00
