Cu 
 1.0000000000000000
    25.7153446083226740    0.0000000000000000    0.0000000000000000
     0.0000000000000000   22.3931623737955405    0.0000000000000000
     0.0000000000000000    0.0000000000000000   24.0874192603664525
 Cu 
  13
Cartesian
 13.0716647694780743 13.2838023842132937 10.0162545069224169
 11.9299425240487498 11.3279917316692629 11.3697571386445695
 13.8677728573445957 10.9940815957286446  9.9559946069751639
 15.5517091400116119 12.6555305992537424 10.0833508690987621
 13.4719745208087840  9.4168137469311883 11.7305583426523690
 11.6237996853769783 13.6151800176235884 11.9211619274626752
 10.1940961126988388 11.9190672790124008 13.0221388437151830
 15.6553409864264665 10.6815737820361409 11.5564888080240813
 11.7483303650157627  9.9983562718885821 13.3943144377088235
 15.4816917305494144  8.7248503625939104 12.8979815186859650
 14.0811748107460932 12.5256882461540897 12.0237736745552386
 12.4399032115185317 12.2536348783372109 13.7544588246623096
 14.2042758809469625 10.6333233002731529 13.6406202558646363
