Au                                      
    1.000000000000000     
    21.1330681797317723    0.0000000000000000    0.0000000000000000
     0.0000000000000000   21.3001004655478710    0.0000000000000000
     0.0000000000000000    0.0000000000000000   23.0346515859654772
   Au
     8
Direct
  0.4755907332958922  0.4839922690041243  0.3906028696802903
  0.4466201293451391  0.4494234507324464  0.4984050463049688
  0.4264443228495592  0.4231418217842608  0.6099748773099605
  0.4454796281216185  0.5468948407936269  0.5830322271589297
  0.4704194518126268  0.5778023492134773  0.4716701405354048
  0.5745028517252375  0.4741810876234243  0.4667160444419505
  0.5495714690742771  0.4432709441657516  0.5780511707316549
  0.5692324384388238  0.5677406938850744  0.5496027652671671
 
  0.00000000E+00  0.00000000E+00  0.00000000E+00
  0.00000000E+00  0.00000000E+00  0.00000000E+00
  0.00000000E+00  0.00000000E+00  0.00000000E+00
  0.00000000E+00  0.00000000E+00  0.00000000E+00
  0.00000000E+00  0.00000000E+00  0.00000000E+00
  0.00000000E+00  0.00000000E+00  0.00000000E+00
  0.00000000E+00  0.00000000E+00  0.00000000E+00
  0.00000000E+00  0.00000000E+00  0.00000000E+00
