Cu                                      
    1.000000000000000     
    24.2649211333529351    0.0000000000000000    0.0000000000000000
     0.0000000000000000   23.7678208895052592    0.0000000000000000
     0.0000000000000000    0.0000000000000000   22.0302438669706433
   Cu
    13
Direct
  0.5652559100571050  0.4775264214485551  0.4754805875469141
  0.5533464588949253  0.5602827882238787  0.5408938877864029
  0.5012180520397009  0.5515924162089116  0.4432740157554370
  0.4527997959349854  0.5700019959826769  0.5392534905321518
  0.3532169056818658  0.5763002717847510  0.5334724820898115
  0.4017349456720614  0.5409118042365980  0.4446069209064025
  0.6469356879209802  0.5263453843781093  0.5180900195148027
  0.5972672819483400  0.5735751338937339  0.4410487899923131
  0.4944761632234950  0.4763117256486677  0.5592569336167952
  0.4625258823763677  0.4596314134474402  0.4562669630031471
  0.3940982259581152  0.4860616861256777  0.5369520239301978
  0.5910902563950370  0.4727992599790322  0.5838704961491865
  0.4342281408100522  0.3971250533535041  0.5377172321458505
 
  0.00000000E+00  0.00000000E+00  0.00000000E+00
  0.00000000E+00  0.00000000E+00  0.00000000E+00
  0.00000000E+00  0.00000000E+00  0.00000000E+00
  0.00000000E+00  0.00000000E+00  0.00000000E+00
  0.00000000E+00  0.00000000E+00  0.00000000E+00
  0.00000000E+00  0.00000000E+00  0.00000000E+00
  0.00000000E+00  0.00000000E+00  0.00000000E+00
  0.00000000E+00  0.00000000E+00  0.00000000E+00
  0.00000000E+00  0.00000000E+00  0.00000000E+00
  0.00000000E+00  0.00000000E+00  0.00000000E+00
  0.00000000E+00  0.00000000E+00  0.00000000E+00
  0.00000000E+00  0.00000000E+00  0.00000000E+00
  0.00000000E+00  0.00000000E+00  0.00000000E+00
