Cu 
 1.0000000000000000
    24.2649211333529351    0.0000000000000000    0.0000000000000000
     0.0000000000000000   23.7678208895052592    0.0000000000000000
     0.0000000000000000    0.0000000000000000   22.0302438669706433
 Cu 
  13
Cartesian
 13.5574912352451822 11.6492725880319554 10.3773739701296268
 13.1357764511811279 13.7935299155849105 11.8216438882254895
 11.9063029508555971 13.3876521632713974  9.7362673595916274
 10.6342510991240076 13.6383021459740021 11.8224499386734294
  8.2294734258039295 13.3789513151617054 11.7975279327263713
  9.4684802079022781 12.8231311079247376  9.8091829554405372
 15.8630013035084527 11.0275992734942125 10.9135410324865099
 15.2902522167725952 13.3468266714226829 10.7913117660300255
 12.0131283661975825 11.6469982648527637 12.3019569413997338
 11.1696711081537963 11.0635547916842949  9.9763194488718678
  9.5659778474934942 11.3561122130894017 11.8468345554175976
 14.4940243496776588 11.9139352273091763 12.6710279077424630
 11.1370811889118819  9.4690244808538218 11.7585243693901038
