Au Cu                                   
    1.000000000000000     
    22.1454616808045337    0.0000000000000000    0.0000000000000000
     0.0000000000000000   21.9699073999509800    0.0000000000000000
     0.0000000000000000    0.0000000000000000   22.1067794337017780
   Au   Cu
     4     4
Direct
  0.5945799657103977  0.4616335919218927  0.5829938780300415
  0.4643309045038941  0.6012929264927956  0.5550329943735585
  0.4150011597973863  0.4159275814076941  0.5335345152188452
  0.5311069196200527  0.5005153980564019  0.4054594203989746
  0.4838052286494324  0.4916294328043248  0.5865487516948148
  0.5523879632558608  0.5414165710888333  0.5110029258631283
  0.5230493121730033  0.4319627838966008  0.4978937395471369
  0.4462138746366731  0.5142828220883672  0.4815814605652012
 
  0.00000000E+00  0.00000000E+00  0.00000000E+00
  0.00000000E+00  0.00000000E+00  0.00000000E+00
  0.00000000E+00  0.00000000E+00  0.00000000E+00
  0.00000000E+00  0.00000000E+00  0.00000000E+00
  0.00000000E+00  0.00000000E+00  0.00000000E+00
  0.00000000E+00  0.00000000E+00  0.00000000E+00
  0.00000000E+00  0.00000000E+00  0.00000000E+00
  0.00000000E+00  0.00000000E+00  0.00000000E+00
