Pd                                      
    1.000000000000000     
    23.7110884118019669    0.0000000000000000    0.0000000000000000
     0.0000000000000000   22.3903015357979669    0.0000000000000000
     0.0000000000000000    0.0000000000000000   26.2490070653997094
   Pd
    16
Direct
  0.5642357552656058  0.5533369012625430  0.4962736337175308
  0.4838014804282533  0.4684315919527897  0.5343976622546426
  0.4824463192813465  0.4844681322969798  0.4350827745120808
  0.4501921488000306  0.5812541788651783  0.4927014810485176
  0.5753047556232989  0.4337517439363374  0.4849524347868465
  0.5078309162119278  0.5822503761607415  0.5815333100909327
  0.5846680513304071  0.4782756616713001  0.5780294196786862
  0.5165582799072771  0.5966513928764177  0.4131636974230801
  0.6004560697776399  0.5134286368903641  0.4083450273444684
  0.3863805561023313  0.4848837139470909  0.4870903497867193
  0.4045247974155646  0.5357442615349719  0.5774467000901333
  0.6191561085066264  0.5914154611157132  0.5761451253134140
  0.4854365202665654  0.4817698937308638  0.6345249463966480
  0.5516473764809444  0.4105857553081404  0.3881620180996194
  0.5734346911495798  0.5487122497314173  0.6594473619933465
  0.5172204734220808  0.5103777777577599  0.3419903958105699
 
  0.00000000E+00  0.00000000E+00  0.00000000E+00
  0.00000000E+00  0.00000000E+00  0.00000000E+00
  0.00000000E+00  0.00000000E+00  0.00000000E+00
  0.00000000E+00  0.00000000E+00  0.00000000E+00
  0.00000000E+00  0.00000000E+00  0.00000000E+00
  0.00000000E+00  0.00000000E+00  0.00000000E+00
  0.00000000E+00  0.00000000E+00  0.00000000E+00
  0.00000000E+00  0.00000000E+00  0.00000000E+00
  0.00000000E+00  0.00000000E+00  0.00000000E+00
  0.00000000E+00  0.00000000E+00  0.00000000E+00
  0.00000000E+00  0.00000000E+00  0.00000000E+00
  0.00000000E+00  0.00000000E+00  0.00000000E+00
  0.00000000E+00  0.00000000E+00  0.00000000E+00
  0.00000000E+00  0.00000000E+00  0.00000000E+00
  0.00000000E+00  0.00000000E+00  0.00000000E+00
  0.00000000E+00  0.00000000E+00  0.00000000E+00
