Pd 
 1.0000000000000000
    23.7110884118019669    0.0000000000000000    0.0000000000000000
     0.0000000000000000   22.3903015357979669    0.0000000000000000
     0.0000000000000000    0.0000000000000000   26.2490070653997094
 Pd 
  16
Cartesian
 13.3278865474579256 12.3506528562717453 13.0432266716000242
 11.4813660957326622 10.5360082723377619 14.0410809404998425
 11.5169071124941240 10.8652932724491720 11.4326217612660965
 10.7414733021591786 12.9661693655421999 12.9526458898634154
 13.6326341811407978  9.7643882863628022 12.6472620087031800
 12.0517764278102959 12.9849738528781344 15.2886273257547334
 13.8083348596593094 10.7781095012210120 15.1889746207422380
 12.2490268336604640 13.2755036633076440 10.7810500379574687
 14.1719184934128801 11.4826271625285212 10.7097978837980303
  9.2146467068805382 10.9122692043733327 12.8362548989810694
  9.6244595465458946 11.9757841891383325 15.1581480026378781
 14.6418621654874972 13.2238049770392578 15.1841285875431460
 11.5170139951699522 10.8323703761958523 16.6441965630017918
 13.0802938159896414  9.2332458462237099 10.1385949238528443
 13.5622250603192462 12.2650333585718290 17.2981078437347087
 12.2583201118674001 11.3932668485827104  8.9910162893816246
