Al                                      
    1.000000000000000     
    22.8604333590981916    0.0000000000000000    0.0000000000000000
     0.0000000000000000   23.5723942857588398    0.0000000000000000
     0.0000000000000000    0.0000000000000000   22.4417036601805222
   Al
     7
Direct
  0.4354341898462586  0.3956355055082317  0.4772393314300385
  0.4830019241767383  0.5587702853640559  0.5522213512953069
  0.5025506328136894  0.5628424359136454  0.4321486824093224
  0.5015837837301504  0.4505110925042513  0.5553205193261097
  0.4160792823766444  0.5066223959380537  0.4773191864124810
  0.5213810245598069  0.4545728002964585  0.4276331247917690
  0.5814377770393194  0.5121316928275425  0.5048037631703861
 
  0.00000000E+00  0.00000000E+00  0.00000000E+00
  0.00000000E+00  0.00000000E+00  0.00000000E+00
  0.00000000E+00  0.00000000E+00  0.00000000E+00
  0.00000000E+00  0.00000000E+00  0.00000000E+00
  0.00000000E+00  0.00000000E+00  0.00000000E+00
  0.00000000E+00  0.00000000E+00  0.00000000E+00
  0.00000000E+00  0.00000000E+00  0.00000000E+00
