Al 
 1.0000000000000000
    22.8604333590981916    0.0000000000000000    0.0000000000000000
     0.0000000000000000   23.5723942857588398    0.0000000000000000
     0.0000000000000000    0.0000000000000000   22.4417036601805222
 Al 
   7
Cartesian
  9.9570529226904245  9.3315844004296160 10.7093418123933688
 11.0454041977146318 13.1688397210574504 12.3900486272783983
 11.4913363793020249 13.2644606527343303  9.7023376935258963
 11.4692377986388436 10.6193497015118439 12.4674467268862479
  9.5040180183880221 11.9428193609473023 10.7101320230872847
 11.9205256909821244 10.7134712735992572  9.5934981299223239
 13.2858889124629869 12.0741157642861037 11.3278658115923836
