Cu                                      
    1.000000000000000     
    23.2949218824710798    0.0000000000000000    0.0000000000000000
     0.0000000000000000   24.1841779467348630    0.0000000000000000
     0.0000000000000000    0.0000000000000000   23.9276142263399194
   Cu
    13
Direct
  0.4129748877110382  0.4543383425161535  0.4869359339615139
  0.4263847033469035  0.5432933700283119  0.5313907873434093
  0.5078998328485136  0.4895333120136673  0.4820601293195343
  0.5849597718914492  0.5341400931062010  0.5376792795859333
  0.5077053328590569  0.5916969088649674  0.4915455987211459
  0.4716753357033197  0.4675094601091867  0.5802781451435772
  0.5056340103351681  0.5633544514953608  0.5929652461529547
  0.5721346099845473  0.6315279512143930  0.5574213385996560
  0.5617105598309645  0.4843507042136742  0.6288581795936030
  0.5243165793182436  0.3882819683157164  0.6178277921716931
  0.4366123907493837  0.5445799236830459  0.4326693762910577
  0.4804448592401688  0.3873708147107558  0.5235168851433643
  0.5693153776804597  0.4360532388339531  0.5419023286143013
 
  0.00000000E+00  0.00000000E+00  0.00000000E+00
  0.00000000E+00  0.00000000E+00  0.00000000E+00
  0.00000000E+00  0.00000000E+00  0.00000000E+00
  0.00000000E+00  0.00000000E+00  0.00000000E+00
  0.00000000E+00  0.00000000E+00  0.00000000E+00
  0.00000000E+00  0.00000000E+00  0.00000000E+00
  0.00000000E+00  0.00000000E+00  0.00000000E+00
  0.00000000E+00  0.00000000E+00  0.00000000E+00
  0.00000000E+00  0.00000000E+00  0.00000000E+00
  0.00000000E+00  0.00000000E+00  0.00000000E+00
  0.00000000E+00  0.00000000E+00  0.00000000E+00
  0.00000000E+00  0.00000000E+00  0.00000000E+00
  0.00000000E+00  0.00000000E+00  0.00000000E+00
