Cu 
 1.0000000000000000
    23.2949218824710798    0.0000000000000000    0.0000000000000000
     0.0000000000000000   24.1841779467348630    0.0000000000000000
     0.0000000000000000    0.0000000000000000   23.9276142263399194
 Cu 
  13
Cartesian
  9.5721333882378232 10.9802488580779904 11.6709278602138298
  9.6060162835595264 13.2365246154200431 12.5555446872817420
 11.7858641317664610 11.9218756357960451 12.2435751314053007
 14.0137527146179171 12.8415195398973605 12.1786594572104878
 11.8714783809560505 14.3170545160914280 11.9554975888839401
 10.4268320473457585 11.3253720641444442 14.1201527784204774
 11.2088667731338880 13.6937964461958703 14.2839912845135917
 13.4602540302055100 14.5051847006506307 13.8377524721244427
 13.0552598117045999 12.1247376406078473 14.3822527315376263
 12.3171505346198344  9.8432386270031618 14.7265838859488714
 10.5737200264834552 12.8761291011299157 10.3664117130172482
 11.3161417328411655  9.5211875910548027 12.5639875365917675
 13.6484089740811143 10.3979727280135936 12.7288213305950606
