Cu                                      
    1.000000000000000     
    23.3315912774055505    0.0000000000000000    0.0000000000000000
     0.0000000000000000   23.2117183266277785    0.0000000000000000
     0.0000000000000000    0.0000000000000000   24.9765662407977125
   Cu
    13
Direct
  0.4750778280582111  0.4387381140494924  0.4907051674013931
  0.5622789726518197  0.5001280630399693  0.4556248346180060
  0.5262091758531645  0.4467400787386083  0.5781627891503069
  0.4350586172566931  0.4981321676880980  0.5634269011824745
  0.4803704807120306  0.5519030492548881  0.4934376314790272
  0.5789307584120940  0.5864864739777580  0.5116999519851960
  0.4699138492086520  0.4997859899497733  0.4085435888255852
  0.5762902053370756  0.4090667255312243  0.4985533326014585
  0.3905583154088184  0.4926922623143830  0.4725956056091335
  0.5233436035064267  0.4087520179100801  0.4116258070099760
  0.6086630277602724  0.4952470328401628  0.5459090833835304
  0.4174837299893643  0.4114047657692563  0.4134498120822390
  0.5243233733595272  0.5485776075953807  0.5845964053493604
 
  0.00000000E+00  0.00000000E+00  0.00000000E+00
  0.00000000E+00  0.00000000E+00  0.00000000E+00
  0.00000000E+00  0.00000000E+00  0.00000000E+00
  0.00000000E+00  0.00000000E+00  0.00000000E+00
  0.00000000E+00  0.00000000E+00  0.00000000E+00
  0.00000000E+00  0.00000000E+00  0.00000000E+00
  0.00000000E+00  0.00000000E+00  0.00000000E+00
  0.00000000E+00  0.00000000E+00  0.00000000E+00
  0.00000000E+00  0.00000000E+00  0.00000000E+00
  0.00000000E+00  0.00000000E+00  0.00000000E+00
  0.00000000E+00  0.00000000E+00  0.00000000E+00
  0.00000000E+00  0.00000000E+00  0.00000000E+00
  0.00000000E+00  0.00000000E+00  0.00000000E+00
