Cu 
 1.0000000000000000
    23.3315912774055505    0.0000000000000000    0.0000000000000000
     0.0000000000000000   23.2117183266277785    0.0000000000000000
     0.0000000000000000    0.0000000000000000   24.9765662407977125
 Cu 
  13
Cartesian
 11.2324969339597285 10.3642553826622148 12.3257481718877173
 13.1520811816899172 11.6111842751061420 11.3268933934761638
 12.2108901362897289 10.2131314567810314 14.5305336667815368
 10.0722096013315099 11.5300392891748675 14.1247095970226937
 11.1721862559578327 12.8624347365780558 12.2967138795263704
 13.4761372966238344 13.6360604926204516 12.6807184614389516
 10.9631939265999119 11.6495462532111453 10.1294893398392514
 13.4543518083779645  9.3792415284757293 12.4563597798565233
  9.1236598414309302 11.5158660803975561 11.8110368902633027
 12.2789339165701303  9.5380424686564798 10.2518677305635322
 14.1041220181291447 11.4470159579174151 13.5851483058850881
  9.8154508292202856  9.5350453711137479 10.5116032509095430
 12.1978887647459668 12.6653983835755213 14.5268103408580238
