Pd                                      
    1.000000000000000     
    21.6990165401179311    0.0000000000000000    0.0000000000000000
     0.0000000000000000   21.9741443818711808    0.0000000000000000
     0.0000000000000000    0.0000000000000000   22.3642294563455124
   Pd
     5
Direct
  0.5846268525104230  0.5318092354885953  0.4128622103333311
  0.5236157411638258  0.5973298306528063  0.4776425593502833
  0.5069063195095792  0.5650571961773058  0.5778219264460562
  0.5390469393310293  0.4292667267538297  0.4332936420532291
  0.4386830545452325  0.5167079273856593  0.4748511051298315
 
  0.00000000E+00  0.00000000E+00  0.00000000E+00
  0.00000000E+00  0.00000000E+00  0.00000000E+00
  0.00000000E+00  0.00000000E+00  0.00000000E+00
  0.00000000E+00  0.00000000E+00  0.00000000E+00
  0.00000000E+00  0.00000000E+00  0.00000000E+00
