Pd 
 1.0000000000000000
    21.6990165401179311    0.0000000000000000    0.0000000000000000
     0.0000000000000000   21.9741443818711808    0.0000000000000000
     0.0000000000000000    0.0000000000000000   22.3642294563455124
 Pd 
   5
Cartesian
 12.6590854337558696 11.3871113280973191  9.1015189535511034
 11.4609704247432376 12.8757001487312532 10.7389509261324552
 10.5669838040719668 12.7640046262911078 13.0538043047207530
 12.3531121892287210  9.0735881189387371  9.0185902201738362
  9.2227704390200032 11.9150926890111215 11.2350882501203433
