Ni Pd                                   
    1.000000000000000     
    23.2502041636362620    0.0000000000000000    0.0000000000000000
     0.0000000000000000   22.7654370083907551    0.0000000000000000
     0.0000000000000000    0.0000000000000000   24.1928579443619860
   Ni   Pd
     6     4
Direct
  0.4959890790292350  0.4783778740513002  0.5605170742839350
  0.5131467676014742  0.4350653078451462  0.4746172788062694
  0.5150185386208744  0.5763393130457465  0.5575459640065100
  0.4308056866736211  0.4908765389462370  0.4882686206475317
  0.4502977157770866  0.5897863290189308  0.4866565269866379
  0.4041258355914685  0.5460857711005415  0.4127988742247025
  0.5819429393726797  0.5111173697282760  0.5045773986748308
  0.5060995026701940  0.5263229227329621  0.4183614720453915
  0.4133753667944239  0.5464642230831068  0.5760703521908594
  0.5516837923301171  0.6204061157444590  0.4712536810425081
 
  0.00000000E+00  0.00000000E+00  0.00000000E+00
  0.00000000E+00  0.00000000E+00  0.00000000E+00
  0.00000000E+00  0.00000000E+00  0.00000000E+00
  0.00000000E+00  0.00000000E+00  0.00000000E+00
  0.00000000E+00  0.00000000E+00  0.00000000E+00
  0.00000000E+00  0.00000000E+00  0.00000000E+00
  0.00000000E+00  0.00000000E+00  0.00000000E+00
  0.00000000E+00  0.00000000E+00  0.00000000E+00
  0.00000000E+00  0.00000000E+00  0.00000000E+00
  0.00000000E+00  0.00000000E+00  0.00000000E+00
