Ni Pd 
 1.0000000000000000
    23.2502041636362620    0.0000000000000000    0.0000000000000000
     0.0000000000000000   22.7654370083907551    0.0000000000000000
     0.0000000000000000    0.0000000000000000   24.1928579443619860
 Ni  Pd 
   6   4
Cartesian
 11.5582164954226556 10.8244807798809664 13.6093235142874320
 11.9900635490802507  9.8067119735402368 11.4229602982949281
 12.0280200295875304 13.2227351959725414 13.5888920315711985
  9.9666740277500967 11.1122541704600835 11.8027632366380626
 10.4280983748741232 13.5291673982312322 11.7757944812571171
  9.3646858103032589 12.4511835315799324  9.8860807684850975
 13.4294329029672905 11.6943294792068375 12.1874944473542133
 11.7590761751346573 12.0014261456867946 10.2374784647037593
  9.6894659884232386 12.4363213739630556 13.8829972700549149
 12.8400408578439826 14.0526779909551696 11.3770048248611833
