Au                                      
    1.000000000000000     
    21.3845940479376253    0.0000000000000000    0.0000000000000000
     0.0000000000000000   22.7381636804237957    0.0000000000000000
     0.0000000000000000    0.0000000000000000   23.8097772769616256
   Au
     8
Direct
  0.6210445545553677  0.5375369300456153  0.3536958865147579
  0.5959891913328957  0.4893718139773938  0.4523014268527751
  0.4783462585002349  0.5032692414453175  0.4960760628142248
  0.5681116692032413  0.4421558932302652  0.5510352424629967
  0.5067195495562036  0.5521535438557973  0.3938867308227791
  0.4496648037512022  0.4561274696763223  0.5963346081382632
  0.3931989977592311  0.5659534901435179  0.4367206180415602
  0.3635117799811474  0.5171991957741856  0.5398145596736453
 
  0.00000000E+00  0.00000000E+00  0.00000000E+00
  0.00000000E+00  0.00000000E+00  0.00000000E+00
  0.00000000E+00  0.00000000E+00  0.00000000E+00
  0.00000000E+00  0.00000000E+00  0.00000000E+00
  0.00000000E+00  0.00000000E+00  0.00000000E+00
  0.00000000E+00  0.00000000E+00  0.00000000E+00
  0.00000000E+00  0.00000000E+00  0.00000000E+00
  0.00000000E+00  0.00000000E+00  0.00000000E+00
