Au 
 1.0000000000000000
    21.3845940479376253    0.0000000000000000    0.0000000000000000
     0.0000000000000000   22.7381636804237957    0.0000000000000000
     0.0000000000000000    0.0000000000000000   23.8097772769616256
 Au 
   8
Cartesian
 13.2813950271403716 12.2227047562188140  8.4209476494909410
 12.7445435660663406 11.1273623747812422 10.7697152254488060
 10.2298206253182720 11.4427880198599308 11.8119157663120493
 12.1491506788407193 10.0538737688736664 13.1197306805130918
 10.8354690784383187 12.5549611644548715  9.3784222279830178
  9.6166084819033451 10.3708023679611934 14.1994011083925837
  8.4081269069491036 12.8691799570922836 10.3978422044882546
  7.7725801489450879 11.7609399418959075 12.8521632373952777
