Ni                                      
    1.000000000000000     
    21.5175721047229693    0.0000000000000000    0.0000000000000000
     0.0000000000000000   22.0114252431474640    0.0000000000000000
     0.0000000000000000    0.0000000000000000   22.8752090478126426
   Ni
    10
Direct
  0.4715113004502363  0.4762362847328235  0.4294054583839703
  0.5768980824068748  0.4718201599635337  0.4053525135774330
  0.4202169108892576  0.5675445403006553  0.4355188039753943
  0.5397202724452977  0.4136056534226073  0.4832141183113037
  0.4395847526535845  0.4363108055442839  0.5200299464390695
  0.5268423490834970  0.5663311667347485  0.4304430677654129
  0.5239056058850611  0.4635618188567197  0.5771474704452535
  0.5812172349144704  0.5076033500957565  0.5007997167797550
  0.4754743159854622  0.5366008985078193  0.5162692304637782
  0.4270369422688269  0.5017758495687649  0.5984989623736390
 
  0.00000000E+00  0.00000000E+00  0.00000000E+00
  0.00000000E+00  0.00000000E+00  0.00000000E+00
  0.00000000E+00  0.00000000E+00  0.00000000E+00
  0.00000000E+00  0.00000000E+00  0.00000000E+00
  0.00000000E+00  0.00000000E+00  0.00000000E+00
  0.00000000E+00  0.00000000E+00  0.00000000E+00
  0.00000000E+00  0.00000000E+00  0.00000000E+00
  0.00000000E+00  0.00000000E+00  0.00000000E+00
  0.00000000E+00  0.00000000E+00  0.00000000E+00
  0.00000000E+00  0.00000000E+00  0.00000000E+00
