Ni 
 1.0000000000000000
    21.5175721047229693    0.0000000000000000    0.0000000000000000
     0.0000000000000000   22.0114252431474640    0.0000000000000000
     0.0000000000000000    0.0000000000000000   22.8752090478126426
 Ni 
  10
Cartesian
 10.0892186157048958 10.4360623788854543  9.7367249680085113
 12.4625990849055430 10.3974028843143724  9.2490160809497546
  8.9879139187107029 12.5404404137896410  9.9526689193244842
 11.5761588781559510  9.1219163435068005 11.1084766047457020
  9.3253300011935192  9.5606997450451097 11.8930164766291835
 11.3950799383264307 12.5010696703562783  9.7371205900553672
 11.3132489490796431 10.1358353262279834 13.2736864949364950
 12.6131858713334211 11.2688127113947232 11.4868479229476197
 10.2913797741023263 11.7838340665077634 11.7988385560990761
  9.1552033496668663 11.0209746582476296 13.7761657511794997
