Pd                                      
    1.000000000000000     
    27.0999548901615981    0.0000000000000000    0.0000000000000000
     0.0000000000000000   23.5705689191689274    0.0000000000000000
     0.0000000000000000    0.0000000000000000   27.7820129857219733
   Pd
    16
Direct
  0.5405290036767201  0.4521576362147363  0.5454917839791629
  0.5526108820545290  0.4436910854733278  0.4541916212476520
  0.4970012161967118  0.5372339398859866  0.4928222853038244
  0.5757144906955236  0.5678918756096186  0.5405740479300327
  0.5058502796000798  0.4232162928586762  0.3710257723758829
  0.6282561469790571  0.4809396416448256  0.5048380681641730
  0.4455053302626491  0.4599130219938058  0.5420406226900178
  0.5621570506361494  0.4770522008010888  0.6345016080326015
  0.4566924404608141  0.4491131536076048  0.4494319685577111
  0.6448915657662524  0.5231654837574459  0.5945208775828930
  0.5004474672070508  0.5323864431113003  0.3959566811618310
  0.4910870205551034  0.5415763696526394  0.5897824950510947
  0.5835070520516900  0.5561465611505532  0.4474692471058241
  0.6245299855293882  0.4153541199970897  0.5820889765554822
  0.5700242822648461  0.5869830077955385  0.6324873569846030
  0.5873439573612569  0.4874426709194534  0.3736152163132376
 
  0.00000000E+00  0.00000000E+00  0.00000000E+00
  0.00000000E+00  0.00000000E+00  0.00000000E+00
  0.00000000E+00  0.00000000E+00  0.00000000E+00
  0.00000000E+00  0.00000000E+00  0.00000000E+00
  0.00000000E+00  0.00000000E+00  0.00000000E+00
  0.00000000E+00  0.00000000E+00  0.00000000E+00
  0.00000000E+00  0.00000000E+00  0.00000000E+00
  0.00000000E+00  0.00000000E+00  0.00000000E+00
  0.00000000E+00  0.00000000E+00  0.00000000E+00
  0.00000000E+00  0.00000000E+00  0.00000000E+00
  0.00000000E+00  0.00000000E+00  0.00000000E+00
  0.00000000E+00  0.00000000E+00  0.00000000E+00
  0.00000000E+00  0.00000000E+00  0.00000000E+00
  0.00000000E+00  0.00000000E+00  0.00000000E+00
  0.00000000E+00  0.00000000E+00  0.00000000E+00
  0.00000000E+00  0.00000000E+00  0.00000000E+00
