Pd 
 1.0000000000000000
    27.0999548901615981    0.0000000000000000    0.0000000000000000
     0.0000000000000000   23.5705689191689274    0.0000000000000000
     0.0000000000000000    0.0000000000000000   27.7820129857219733
 Pd 
  16
Cartesian
 14.6976387198483049 10.7478239511015268 15.1899706009145383
 14.9095670695794311 10.5681962264912883 12.5806565456976216
 13.4363507611710720 12.6374468857383846 13.6701875552354615
 15.5662201951902706 13.3632140029276272 15.0240187689139457
 13.7518015775277931 10.0034726053746574 10.3272316765414267
 17.0111411606579459 11.3610443296676866 14.0776207048274369
 12.1135555108283501 10.8646689984688027 14.9969774022956859
 15.2955717068961086 11.2583487461953382 17.6744801084559917
 12.2952213238840642 10.6225199134240000 12.4089633423434247
 17.3897253876919144 12.3186685022826072 16.5456574135942631
 13.6085531858720827 12.4629665497122257 11.0412389139432801
 13.4107916704554011 12.6776762445036901 16.4051950179112254
 15.8046236737589822 13.0378623150364934 12.4098186772409651
 16.9114626524128688  9.8357195095127885 16.1927481484620550
 15.4789119156672985 13.7963896307215776 17.5650547656088278
 15.8810834912017143 11.4590863438849482 10.3368849944167245
