Ni Pd                                   
    1.000000000000000     
    22.9211244833179038    0.0000000000000000    0.0000000000000000
     0.0000000000000000   23.7270811866192268    0.0000000000000000
     0.0000000000000000    0.0000000000000000   22.6526915961209774
   Ni   Pd
     6     4
Direct
  0.4672937616873849  0.4701082261693624  0.5467062757953154
  0.5605516520607359  0.4680485178457847  0.4992340635612800
  0.4450010323825412  0.5493370905623528  0.4852160569346497
  0.5276652377376075  0.5524083744508790  0.5429396003229444
  0.4780442297024370  0.4649243505994974  0.4416407191661482
  0.5382753347258933  0.5473085484086484  0.4379276213395492
  0.4325614379381243  0.5575943783577124  0.5926681643612074
  0.5013079996876165  0.3818616139692360  0.5018893624671718
  0.5043117202257980  0.6356001470585583  0.4828125008178707
  0.5730756647885440  0.4599825137961148  0.3919410314922646
 
  0.00000000E+00  0.00000000E+00  0.00000000E+00
  0.00000000E+00  0.00000000E+00  0.00000000E+00
  0.00000000E+00  0.00000000E+00  0.00000000E+00
  0.00000000E+00  0.00000000E+00  0.00000000E+00
  0.00000000E+00  0.00000000E+00  0.00000000E+00
  0.00000000E+00  0.00000000E+00  0.00000000E+00
  0.00000000E+00  0.00000000E+00  0.00000000E+00
  0.00000000E+00  0.00000000E+00  0.00000000E+00
  0.00000000E+00  0.00000000E+00  0.00000000E+00
  0.00000000E+00  0.00000000E+00  0.00000000E+00
