Ni Pd 
 1.0000000000000000
    22.9211244833179038    0.0000000000000000    0.0000000000000000
     0.0000000000000000   23.7270811866192268    0.0000000000000000
     0.0000000000000000    0.0000000000000000   22.6526915961209774
 Ni  Pd 
   6   4
Cartesian
 10.7086119705464711 11.1511672770168495 12.3871697496776445
 12.8486568186379788 11.1080317853461974 11.3109652412772252
 10.2000372966369710 13.0316512206504473 10.9929710409715522
 12.0955288431583092 13.1073012006867486 12.2975514537533392
 10.9530029777144797 11.0319052576193304 10.0052359765878087
 12.3419374067629342 12.9902217618323288  9.9159745997271997
  9.9171336017087590 13.2311901687423195 13.4211880976489919
 11.4913256218050002  9.0626598376583090 11.3665418128910982
 11.5589495656044505 15.0763045092657020 10.9398512326297190
 13.1342484844502625 10.9133518240441045  8.8811941815684161
