Cu                                      
    1.000000000000000     
    23.1026978572643173    0.0000000000000000    0.0000000000000000
     0.0000000000000000   20.7122807128577264    0.0000000000000000
     0.0000000000000000    0.0000000000000000   24.4987978910561566
   Cu
    13
Direct
  0.4588124728992826  0.4442245924048169  0.5213815321577925
  0.5424952257339777  0.4421428426657971  0.4619153882468502
  0.5596032822633290  0.5556501006379286  0.4858507856370638
  0.4513363153518960  0.5498176256895179  0.4762099366518595
  0.5555144040869050  0.4703775081268243  0.5574628311318344
  0.4944824772130436  0.5668094573399702  0.5647482694735075
  0.4487113221517747  0.4508308715160998  0.4189682734362995
  0.5123473397997952  0.5401310140774294  0.3975441302479488
  0.3973673778710428  0.5259212590235498  0.5622952923064990
  0.4687173569500915  0.4703942327816528  0.6176763205032172
  0.6098148953667027  0.5031035932924468  0.4075018208058646
  0.5367492104445580  0.4334876693965481  0.3645941408163499
  0.5525927093108938  0.5325299240408613  0.6403370884224828
 
  0.00000000E+00  0.00000000E+00  0.00000000E+00
  0.00000000E+00  0.00000000E+00  0.00000000E+00
  0.00000000E+00  0.00000000E+00  0.00000000E+00
  0.00000000E+00  0.00000000E+00  0.00000000E+00
  0.00000000E+00  0.00000000E+00  0.00000000E+00
  0.00000000E+00  0.00000000E+00  0.00000000E+00
  0.00000000E+00  0.00000000E+00  0.00000000E+00
  0.00000000E+00  0.00000000E+00  0.00000000E+00
  0.00000000E+00  0.00000000E+00  0.00000000E+00
  0.00000000E+00  0.00000000E+00  0.00000000E+00
  0.00000000E+00  0.00000000E+00  0.00000000E+00
  0.00000000E+00  0.00000000E+00  0.00000000E+00
  0.00000000E+00  0.00000000E+00  0.00000000E+00
