Cu 
 1.0000000000000000
    23.1026978572643173    0.0000000000000000    0.0000000000000000
     0.0000000000000000   20.7122807128577264    0.0000000000000000
     0.0000000000000000    0.0000000000000000   24.4987978910561566
 Cu 
  13
Cartesian
 10.5961343153185599  9.2025345355965378 12.7917471519367254
 12.5302102919724021  9.1517777806645810 11.2975048278630048
 12.9238883044561881 11.4901328314952664 11.9039838195410752
 10.4245759455068168 11.3525141653611783 11.6615852454988715
 12.8532148943923392  9.7359539276108009 13.6988042658271123
 11.4172058527236686 11.7553514352138837 13.8724163766395989
 10.3421658726731316  9.3260680949981491 10.2485826328004439
 11.8479979127427946 11.2129723946398414  9.6732209032859249
  9.1489690752268800 10.8879762746621811 13.7633849607561309
 10.8226967575664847  9.7541294694856759 15.1844175889771087
 14.1141751671343911 10.4125958460945167  9.9644608594753166
 12.3998565190565309  8.9998915568465527  8.8748618671830393
 12.7920594397122223 11.0459555801627971 15.7311463997195489
