Au                                      
    1.000000000000000     
    22.6418499335821792    0.0000000000000000    0.0000000000000000
     0.0000000000000000   24.2944298383304442    0.0000000000000000
     0.0000000000000000    0.0000000000000000   21.3916136925080451
   Au
     8
Direct
  0.5762544879855132  0.6289483525721498  0.4208155374994779
  0.4867080178575450  0.5725646619308012  0.4632637312207682
  0.6025281798603933  0.5526633690201860  0.5067533469564829
  0.4638541628126623  0.4579641385722215  0.4739051349081080
  0.5252188281350003  0.3709022473952375  0.4440922156085177
  0.3981816085527747  0.5331882869199244  0.5324526639919274
  0.5810173004261761  0.4442476796689653  0.5164548878400286
  0.5114297819575749  0.5169567619289840  0.5786117136490172
 
  0.00000000E+00  0.00000000E+00  0.00000000E+00
  0.00000000E+00  0.00000000E+00  0.00000000E+00
  0.00000000E+00  0.00000000E+00  0.00000000E+00
  0.00000000E+00  0.00000000E+00  0.00000000E+00
  0.00000000E+00  0.00000000E+00  0.00000000E+00
  0.00000000E+00  0.00000000E+00  0.00000000E+00
  0.00000000E+00  0.00000000E+00  0.00000000E+00
  0.00000000E+00  0.00000000E+00  0.00000000E+00
