Ni                                      
    1.000000000000000     
    21.7031429523127279    0.0000000000000000    0.0000000000000000
     0.0000000000000000   22.0249549953464481    0.0000000000000000
     0.0000000000000000    0.0000000000000000   22.2877575199613744
   Ni
    10
Direct
  0.4513675794679043  0.4712794579925537  0.5063473049333065
  0.4555811610380075  0.4251014402167570  0.4118222086830234
  0.4760220540985984  0.5232181096859957  0.5931868525926529
  0.4547480935960633  0.5305078015101854  0.4179199224358128
  0.5245915745808963  0.4307871792164916  0.5780435394351197
  0.4678941146806651  0.5813627870307955  0.5084053360582430
  0.5484731431610406  0.4827399667919696  0.4100742883112096
  0.5497817455036077  0.5087950403572975  0.5128668504719526
  0.5340685551102560  0.4043620399252937  0.4789857067357888
  0.5474042820051276  0.5842971317646634  0.4391275827043815
 
  0.00000000E+00  0.00000000E+00  0.00000000E+00
  0.00000000E+00  0.00000000E+00  0.00000000E+00
  0.00000000E+00  0.00000000E+00  0.00000000E+00
  0.00000000E+00  0.00000000E+00  0.00000000E+00
  0.00000000E+00  0.00000000E+00  0.00000000E+00
  0.00000000E+00  0.00000000E+00  0.00000000E+00
  0.00000000E+00  0.00000000E+00  0.00000000E+00
  0.00000000E+00  0.00000000E+00  0.00000000E+00
  0.00000000E+00  0.00000000E+00  0.00000000E+00
  0.00000000E+00  0.00000000E+00  0.00000000E+00
