Ni 
 1.0000000000000000
    21.7031429523127279    0.0000000000000000    0.0000000000000000
     0.0000000000000000   22.0249549953464481    0.0000000000000000
     0.0000000000000000    0.0000000000000000   22.2877575199613744
 Ni 
  10
Cartesian
  9.7315558686676091 10.3609391992265678 11.2994778351695278
  9.9047804772883179  9.3169836667489161  9.1016584595616461
 10.4351412935599424 11.5741026437786374 13.3405623799831403
  9.8372713654862363 11.7171783573422275  9.2690357474122607
 11.2753711047719474  9.4031183243300305 12.9707472122078187
 10.1015494094834537 12.8443131168806630 11.3678482141108947
 11.9601587498970137 10.6137765576981469  9.0568391491742304
 11.9702360153707392 11.2190014710105466 11.4281547206592240
 11.6423038622340869  8.8708316005192813 10.6870002834335533
 11.8729088119146429 12.9370149018584808  9.7254018807374578
