Ni                                      
    1.000000000000000     
    22.4221254865893513    0.0000000000000000    0.0000000000000000
     0.0000000000000000   22.5919031585941852    0.0000000000000000
     0.0000000000000000    0.0000000000000000   24.2663797329872644
   Ni
    10
Direct
  0.5340812176921480  0.5860824744841082  0.4893185247424340
  0.4625129022014606  0.5253941778593325  0.5349434979698017
  0.5250878377183834  0.4862407359888008  0.4614829019619329
  0.6196936568378858  0.5309888105387133  0.4616723089090382
  0.4193616667681412  0.4522528602547715  0.5888960014478414
  0.5514471981435256  0.5597930286393321  0.3993767452936786
  0.5245944672490156  0.5910577126893253  0.5844510940528919
  0.5051902437926385  0.4318068664448723  0.5408552151601127
  0.5044666253212601  0.4957699304380677  0.6195907258290588
  0.5754941651416772  0.5106279737314660  0.5466907636456563
 
  0.00000000E+00  0.00000000E+00  0.00000000E+00
  0.00000000E+00  0.00000000E+00  0.00000000E+00
  0.00000000E+00  0.00000000E+00  0.00000000E+00
  0.00000000E+00  0.00000000E+00  0.00000000E+00
  0.00000000E+00  0.00000000E+00  0.00000000E+00
  0.00000000E+00  0.00000000E+00  0.00000000E+00
  0.00000000E+00  0.00000000E+00  0.00000000E+00
  0.00000000E+00  0.00000000E+00  0.00000000E+00
  0.00000000E+00  0.00000000E+00  0.00000000E+00
  0.00000000E+00  0.00000000E+00  0.00000000E+00
