Ni 
 1.0000000000000000
    22.4221254865893513    0.0000000000000000    0.0000000000000000
     0.0000000000000000   22.5919031585941852    0.0000000000000000
     0.0000000000000000    0.0000000000000000   24.2663797329872644
 Ni 
  10
Cartesian
 12.0520643088893902 13.3404395796439861 11.8612187483127478
 10.3932236215229761 11.8930900456759527 12.9412911141983749
 11.7668879920076179 10.9461486218477475 11.1704140533629435
 13.9592264241611854 12.0025231881013905 11.1546883119693128
  9.3123126931087779 10.2111996562740579 14.2676523467201051
 12.3021205448475968 12.6563829936583740  9.5806415009331651
 11.7206519301244718 13.4105810747735976 14.2738062835891615
 11.3619621707329976  9.6394248393126514 13.1968929260183838
 11.3240691301695495 11.1748743224674119 15.1141607008184362
 12.8942504975992627 11.5258041963518174 13.2863415693995268
