Au                                      
    1.000000000000000     
    21.6172085722344427    0.0000000000000000    0.0000000000000000
     0.0000000000000000   22.6570251115349528    0.0000000000000000
     0.0000000000000000    0.0000000000000000   22.7111264178274759
   Au
     8
Direct
  0.4264148241935347  0.4916004723719028  0.5683118780987036
  0.4920740072381762  0.5232541580976001  0.3784668657534504
  0.6011072819754830  0.4917901847897925  0.4482626044803000
  0.4864964799775481  0.4462801540133829  0.4695118181200053
  0.5444468808001349  0.5397433231000004  0.5379852859537601
  0.4321586597169823  0.5663382489272748  0.4689722162142851
  0.4513088484231531  0.6063225183850079  0.5808841682709848
  0.4196661196189203  0.3796905580592764  0.5408421612929112
 
  0.00000000E+00  0.00000000E+00  0.00000000E+00
  0.00000000E+00  0.00000000E+00  0.00000000E+00
  0.00000000E+00  0.00000000E+00  0.00000000E+00
  0.00000000E+00  0.00000000E+00  0.00000000E+00
  0.00000000E+00  0.00000000E+00  0.00000000E+00
  0.00000000E+00  0.00000000E+00  0.00000000E+00
  0.00000000E+00  0.00000000E+00  0.00000000E+00
  0.00000000E+00  0.00000000E+00  0.00000000E+00
