Au Cu                                   
    1.000000000000000     
    22.7951318144379300    0.0000000000000000    0.0000000000000000
     0.0000000000000000   21.9082486030725754    0.0000000000000000
     0.0000000000000000    0.0000000000000000   24.3893149373361453
   Au   Cu
     4     4
Direct
  0.5406432373607213  0.3845312751879464  0.5465448896255900
  0.5287342961747957  0.5751006822231496  0.5190031400266603
  0.5452724825620052  0.4565242045826721  0.3833647713744496
  0.3867114592917690  0.4568813398962531  0.4769182621379969
  0.5677288478828846  0.4733841218395141  0.4844475870515325
  0.4738525604759877  0.4767540899367552  0.5390714451768941
  0.4847579852553179  0.4052283125281518  0.4581221926716267
  0.4755170359517180  0.5173731075761323  0.4432658739361096
 
  0.00000000E+00  0.00000000E+00  0.00000000E+00
  0.00000000E+00  0.00000000E+00  0.00000000E+00
  0.00000000E+00  0.00000000E+00  0.00000000E+00
  0.00000000E+00  0.00000000E+00  0.00000000E+00
  0.00000000E+00  0.00000000E+00  0.00000000E+00
  0.00000000E+00  0.00000000E+00  0.00000000E+00
  0.00000000E+00  0.00000000E+00  0.00000000E+00
  0.00000000E+00  0.00000000E+00  0.00000000E+00
