Au Cu 
 1.0000000000000000
    22.7951318144379300    0.0000000000000000    0.0000000000000000
     0.0000000000000000   21.9082486030725754    0.0000000000000000
     0.0000000000000000    0.0000000000000000   24.3893149373361453
 Au  Cu 
   4   4
Cartesian
 11.5256407053374321  9.8119241991043253 12.8517722676320663
 11.5471004510584070 12.3293855985557048 13.2504707166423366
 11.5981416950906215  9.7289537465614977  9.1771320987908762
  9.7691119618312232  9.9912322566266347 10.9194537994215501
 13.2913569086975585  9.6656310113883190 11.0223908446520049
 10.3909330862505467 10.8973489824261218 14.8171369656759300
 11.3966084923084239  8.0209267022826847 11.0056326169004191
 11.7349865247976517 11.6180141614051298 10.8728764645426814
