Ni                                      
    1.000000000000000     
    24.5830158557970009    0.0000000000000000    0.0000000000000000
     0.0000000000000000   24.8393086429081720    0.0000000000000000
     0.0000000000000000    0.0000000000000000   21.5814027997873552
   Ni
    10
Direct
  0.5177894789631952  0.5240802487542098  0.5493591485176949
  0.4360968515819515  0.5499006630523533  0.5937236051926162
  0.5035698069876865  0.4601155237868942  0.4691790498156367
  0.5371607462183399  0.4306373300608271  0.5661161084287113
  0.3776534988206219  0.5893853373940769  0.5272959622415742
  0.5898296251536804  0.4811784928586558  0.5025331071562190
  0.4114587772221557  0.4422561006327316  0.4679682053891910
  0.4443696342197851  0.4607982498194414  0.5673848951454417
  0.4365796710343540  0.5301494343613645  0.4886897291323264
  0.4684269474277131  0.3814435765106043  0.5176671017301369
 
  0.00000000E+00  0.00000000E+00  0.00000000E+00
  0.00000000E+00  0.00000000E+00  0.00000000E+00
  0.00000000E+00  0.00000000E+00  0.00000000E+00
  0.00000000E+00  0.00000000E+00  0.00000000E+00
  0.00000000E+00  0.00000000E+00  0.00000000E+00
  0.00000000E+00  0.00000000E+00  0.00000000E+00
  0.00000000E+00  0.00000000E+00  0.00000000E+00
  0.00000000E+00  0.00000000E+00  0.00000000E+00
  0.00000000E+00  0.00000000E+00  0.00000000E+00
  0.00000000E+00  0.00000000E+00  0.00000000E+00
