Ni 
 1.0000000000000000
    24.5830158557970009    0.0000000000000000    0.0000000000000000
     0.0000000000000000   24.8393086429081720    0.0000000000000000
     0.0000000000000000    0.0000000000000000   21.5814027997873552
 Ni 
  10
Cartesian
 12.7853826794032877 13.0535871624919579 11.9038626807018364
 10.7037783540200451 13.7656140121551473 12.9018502034300830
 12.3746089631345200 11.4067074291218802 10.1087059746218753
 13.2266183110515456 10.6671135948605418 12.2914388220803268
  9.1903537291556336 14.6700691652429462 11.3914536524115775
 14.6025044030872646 11.9483842752900333 10.8113358983561874
  9.9977015724509162 10.9208843801589648 10.0596482948600947
 10.9205832757801762 11.4562723793697625 12.2254156099363342
 10.7705878771086390 13.1964353325106618 10.4904679553103897
 11.5318677507525482  9.3842119625790481 11.1163924677555830
