Al                                      
    1.000000000000000     
    24.5952304804204438    0.0000000000000000    0.0000000000000000
     0.0000000000000000   22.3545268309908174    0.0000000000000000
     0.0000000000000000    0.0000000000000000   19.8533357851939414
   Al
     7
Direct
  0.4942890059566689  0.5858859362868583  0.5429073277355355
  0.5145642739103736  0.5274063328644688  0.4084141573332243
  0.5641398168438118  0.5104574568038248  0.5893485726242494
  0.4933683517267451  0.4533968668640305  0.5187675185245477
  0.4194719286865763  0.5291987042512776  0.4715972024730750
  0.5912296850798285  0.4667131570136780  0.4683257788695243
  0.5848346920108313  0.5863580166288815  0.4785249406126038
 
  0.00000000E+00  0.00000000E+00  0.00000000E+00
  0.00000000E+00  0.00000000E+00  0.00000000E+00
  0.00000000E+00  0.00000000E+00  0.00000000E+00
  0.00000000E+00  0.00000000E+00  0.00000000E+00
  0.00000000E+00  0.00000000E+00  0.00000000E+00
  0.00000000E+00  0.00000000E+00  0.00000000E+00
  0.00000000E+00  0.00000000E+00  0.00000000E+00
