Al 
 1.0000000000000000
    24.5952304804204438    0.0000000000000000    0.0000000000000000
     0.0000000000000000   22.3545268309908174    0.0000000000000000
     0.0000000000000000    0.0000000000000000   19.8533357851939414
 Al 
   7
Cartesian
 10.8766350404004939 12.6772161895288278 10.4859308459573857
 13.0673330871471016 11.1066775186729902  9.9918020427332799
 13.3682979477378385 13.6212592033977700 11.0166503095400241
 13.1096558871414715  8.7225407840588023  8.8512900521902083
  8.7400174331457077 13.4476140783564215  9.5252644224661296
 15.4268779566906140  9.8213375899505344  9.2879604768151598
 15.4764019083848243 12.4078783163584294  9.8887304679782364
