Cu                                      
    1.000000000000000     
    20.8892998195872828    0.0000000000000000    0.0000000000000000
     0.0000000000000000   22.9355124904909005    0.0000000000000000
     0.0000000000000000    0.0000000000000000   26.1034894770341239
   Cu
    13
Direct
  0.4593399045658885  0.4903691319824388  0.4661434693746473
  0.5674965433126541  0.5214055953255272  0.4185573922658649
  0.5496259448198441  0.5623926862400620  0.5062230816666702
  0.5697407435302219  0.4591666127521206  0.4925997561090894
  0.4755129041897156  0.5883773394021053  0.4341118336082848
  0.5165102804741979  0.4211109190670821  0.4152548565854172
  0.4700351552265772  0.5044945836427899  0.3727855750612601
  0.4351182915059476  0.5720295819915335  0.5219021671735353
  0.4890238147720888  0.4837363996355651  0.5585050284552243
  0.4780816726401601  0.3976470711292245  0.5074390359759924
  0.5296351782647903  0.5903853416630168  0.3531183164920887
  0.4083149059210536  0.5353525245235595  0.6053522711649157
  0.5119918112214052  0.5797414385595945  0.5929140382151127
 
  0.00000000E+00  0.00000000E+00  0.00000000E+00
  0.00000000E+00  0.00000000E+00  0.00000000E+00
  0.00000000E+00  0.00000000E+00  0.00000000E+00
  0.00000000E+00  0.00000000E+00  0.00000000E+00
  0.00000000E+00  0.00000000E+00  0.00000000E+00
  0.00000000E+00  0.00000000E+00  0.00000000E+00
  0.00000000E+00  0.00000000E+00  0.00000000E+00
  0.00000000E+00  0.00000000E+00  0.00000000E+00
  0.00000000E+00  0.00000000E+00  0.00000000E+00
  0.00000000E+00  0.00000000E+00  0.00000000E+00
  0.00000000E+00  0.00000000E+00  0.00000000E+00
  0.00000000E+00  0.00000000E+00  0.00000000E+00
  0.00000000E+00  0.00000000E+00  0.00000000E+00
