Cu 
 1.0000000000000000
    20.8892998195872828    0.0000000000000000    0.0000000000000000
     0.0000000000000000   22.9355124904909005    0.0000000000000000
     0.0000000000000000    0.0000000000000000   26.1034894770341239
 Cu 
  13
Cartesian
  9.6471185185111068 11.3111181368691707 12.1937396890411911
 11.8403762083144244 11.9501404498652786 10.9368731568035784
 11.4324916227661983 12.8547739557104244 13.2137327181125084
 11.9818991764392777 10.4557611509287067 12.9140348409496468
  9.9564693164496649 13.5755890645841131 11.3048739576886863
 10.8707412836383881  9.6540187198529495 10.8455569056610361
  9.7038629620031198 11.5718624120830089  9.7447017244467897
  9.0364022005242788 13.2138973003005908 13.6628102567984104
 10.2250156064414792 11.0899282943223980 14.5830584518915831
  9.9859831305870870  9.0759331662121472 13.0951150373005056
 11.0775028694587014 13.4471697110841859  9.1656909941110829
  8.5304219529931604 12.2869009911774469 15.8385801659169232
 10.6655148601108127 13.3232521118194942 15.5150916182794898
