Cu                                      
    1.000000000000000     
    26.6697868848583326    0.0000000000000000    0.0000000000000000
     0.0000000000000000   23.1150942341697245    0.0000000000000000
     0.0000000000000000    0.0000000000000000   23.4742776151371153
   Cu
    13
Direct
  0.0340834414372616  0.5832945071621509  0.1737873258104044
  0.1183155468033207  0.6217133647999217  0.1431475586158336
  0.0984445349529907  0.4480200183001729  0.2407368929733941
  0.1364193236603634  0.4748411626505189  0.1477905617028554
  0.0457932651561841  0.4799916605423761  0.1645641803246695
  0.1688934393774164  0.5371564285636014  0.0713197789998289
  0.1103346187192451  0.5486919890488768  0.2169780252583187
  0.1223280914460831  0.6202831359436877  0.0397135971834562
  0.1901929262561945  0.5605454632875708  0.1700600312789198
  0.0801785798216185  0.5401875574202183  0.0915341715553033
  0.0325712878733482  0.5199028245213932  0.2586857739644132
  0.1980514641835406  0.6353148862923687  0.0944731638214003
  0.2541450760781169  0.5546416812860376  0.0981890340666120
 
  0.00000000E+00  0.00000000E+00  0.00000000E+00
  0.00000000E+00  0.00000000E+00  0.00000000E+00
  0.00000000E+00  0.00000000E+00  0.00000000E+00
  0.00000000E+00  0.00000000E+00  0.00000000E+00
  0.00000000E+00  0.00000000E+00  0.00000000E+00
  0.00000000E+00  0.00000000E+00  0.00000000E+00
  0.00000000E+00  0.00000000E+00  0.00000000E+00
  0.00000000E+00  0.00000000E+00  0.00000000E+00
  0.00000000E+00  0.00000000E+00  0.00000000E+00
  0.00000000E+00  0.00000000E+00  0.00000000E+00
  0.00000000E+00  0.00000000E+00  0.00000000E+00
  0.00000000E+00  0.00000000E+00  0.00000000E+00
  0.00000000E+00  0.00000000E+00  0.00000000E+00
