Cu 
 1.0000000000000000
    26.6697868848583326    0.0000000000000000    0.0000000000000000
     0.0000000000000000   23.1150942341697245    0.0000000000000000
     0.0000000000000000    0.0000000000000000   23.4742776151371153
 Cu 
  13
Cartesian
  1.0733793380661598 128.8440342442607403 27.4860695092456417
  3.2797956255214151 129.6059557309987724 26.8914861659663273
  2.7359273297883986 126.0659629626053260 29.2695725070752744
  3.3072411306380927 126.9383850190082654 27.1218072199697637
  0.8152028902586057 126.5327850818337794 27.2136995895013172
  4.3509565958504766 127.5886417804792785 25.0517461053223833
  3.2274754020869114 128.3520481980317243 29.0311436368084799
  3.7348832997918455 129.7500233667323926 24.4325316549979910
  5.3583419944621609 128.4529483124387923 27.3383225612998473
  2.0246379541526407 128.0977454675991396 25.3361754800187526
  0.7130420053102621 127.5392394365978248 29.3988680382141006
  5.3285745894322627 130.6280153357931795 26.2438687514382707
  6.4488781035749714 128.7707865379889824 25.2091950569933516
