Pd                                      
    1.000000000000000     
    23.3240961816522976    0.0000000000000000    0.0000000000000000
     0.0000000000000000   24.7834535764311035    0.0000000000000000
     0.0000000000000000    0.0000000000000000   24.0133394023312405
   Pd
    16
Direct
  0.5063380679265786  0.4667993405072565  0.5334580673398889
  0.5247208136521786  0.4354813473395343  0.4305913108587080
  0.4111352272403506  0.4564516619029504  0.4762750966424998
  0.5122883102043874  0.5429280731066275  0.4559443263397461
  0.3994454606463441  0.5616339557481249  0.4551228831415500
  0.5177352789690010  0.3890338977622197  0.6106708758404974
  0.5478878775728648  0.5614094938054881  0.5629161124943480
  0.4926944415394572  0.4933933453827413  0.6395937841413153
  0.4104005922102595  0.4307576702078471  0.5858330437639845
  0.6091988424702839  0.4949592731247434  0.4876120148086440
  0.5846862626045309  0.3907166345550030  0.5157978381866496
  0.5992822793298445  0.4689667029743126  0.5976429402252537
  0.4695670750657101  0.6232369112740099  0.5156088609658825
  0.4695365769874503  0.3684936445027248  0.5087641797907282
  0.4254350679463663  0.5359399094809550  0.5601396724777634
  0.4467976439416915  0.4955857232899207  0.3806112435115572
 
  0.00000000E+00  0.00000000E+00  0.00000000E+00
  0.00000000E+00  0.00000000E+00  0.00000000E+00
  0.00000000E+00  0.00000000E+00  0.00000000E+00
  0.00000000E+00  0.00000000E+00  0.00000000E+00
  0.00000000E+00  0.00000000E+00  0.00000000E+00
  0.00000000E+00  0.00000000E+00  0.00000000E+00
  0.00000000E+00  0.00000000E+00  0.00000000E+00
  0.00000000E+00  0.00000000E+00  0.00000000E+00
  0.00000000E+00  0.00000000E+00  0.00000000E+00
  0.00000000E+00  0.00000000E+00  0.00000000E+00
  0.00000000E+00  0.00000000E+00  0.00000000E+00
  0.00000000E+00  0.00000000E+00  0.00000000E+00
  0.00000000E+00  0.00000000E+00  0.00000000E+00
  0.00000000E+00  0.00000000E+00  0.00000000E+00
  0.00000000E+00  0.00000000E+00  0.00000000E+00
  0.00000000E+00  0.00000000E+00  0.00000000E+00
