Pd 
 1.0000000000000000
    23.3240961816522976    0.0000000000000000    0.0000000000000000
     0.0000000000000000   24.7834535764311035    0.0000000000000000
     0.0000000000000000    0.0000000000000000   24.0133394023312405
 Pd 
  16
Cartesian
 11.8173778353854537 11.5725513977429220 12.8089823762610564
 12.1635074205432527 10.7783478468312026 10.3844025528406565
  9.6242280576078425 11.3549138980339848 11.4383580998315129
 11.9333615113141711 13.4544721064410204 10.9691534088476512
  9.3615259229806913 13.9170583367072922 10.9105077944307798
 12.0934487238065067  9.6867272605790031 14.6138620557234251
 12.7093365850125792 13.8863703969575578 13.5243573693752310
 11.5325180379606778 12.2064981462607545 15.3043995770124965
  9.7106808761707146 10.6814516913855506 14.0514890398002894
 14.1160216063532165 12.2061376145410208 11.7756768223875259
 13.5932751342464915  9.7079431082312873 12.4131901425601914
 13.9302787685474918 11.6006408104848493 14.3374864714402275
 10.9231881218752900 15.4050005582319898 12.3586573857293285
 10.9918986474238149  9.1752165529304683 12.2287324465371086
  9.9508495627824765 13.2762630932903214 13.4106806610712805
 10.4421079965562971 12.3142705989205812  9.1789760455082661
