Ni Pd                                   
    1.000000000000000     
    22.5231961335902788    0.0000000000000000    0.0000000000000000
     0.0000000000000000   24.7461521742679977    0.0000000000000000
     0.0000000000000000    0.0000000000000000   24.0203784292226104
   Ni   Pd
     6     4
Direct
  0.4492580535948479  0.5020133154587572  0.5714530819514086
  0.5062891969542909  0.4275152956010142  0.5481809448723814
  0.4476029648890050  0.5579214775033110  0.4867821596230856
  0.4451342006033525  0.4624527668787718  0.4760770914442022
  0.5380987805368685  0.5093213439886171  0.5060916522923208
  0.5032603484933442  0.5162004939585989  0.4168844471700690
  0.5061995756456461  0.5877994003786059  0.5658385605487576
  0.5564454987467480  0.4965807139069027  0.6061990918531838
  0.4003400389526670  0.4149995384682395  0.5535766850850152
  0.3963201364427389  0.5197456074247382  0.4067338575601549
 
  0.00000000E+00  0.00000000E+00  0.00000000E+00
  0.00000000E+00  0.00000000E+00  0.00000000E+00
  0.00000000E+00  0.00000000E+00  0.00000000E+00
  0.00000000E+00  0.00000000E+00  0.00000000E+00
  0.00000000E+00  0.00000000E+00  0.00000000E+00
  0.00000000E+00  0.00000000E+00  0.00000000E+00
  0.00000000E+00  0.00000000E+00  0.00000000E+00
  0.00000000E+00  0.00000000E+00  0.00000000E+00
  0.00000000E+00  0.00000000E+00  0.00000000E+00
  0.00000000E+00  0.00000000E+00  0.00000000E+00
