Ni Pd 
 1.0000000000000000
    22.5231961335902788    0.0000000000000000    0.0000000000000000
     0.0000000000000000   24.7461521742679977    0.0000000000000000
     0.0000000000000000    0.0000000000000000   24.0203784292226104
 Ni  Pd 
   6   4
Cartesian
 10.0675719536191455 12.4589137722198924 13.6652042050410021
 11.4868563960578545 10.4739808854463217 13.2158476345194984
 10.0865173934512153 13.9165820641744435 11.6718996838541642
 10.0483735054743342 11.4099677128610111 11.4218258430438322
 12.1158315644527868 12.5956371976946215 12.1502587452117226
 11.3069918773757525 12.8054936958185159  9.8498234755989760
 11.5164569599789210 14.5004489484946628 13.6582809362712485
 12.3755294256435331 12.3361202456598829 14.6201805020897897
  9.0662957457245099 10.2367856480538890 13.3483882920147607
  8.8910803132195539 12.8619630225426427  9.8106130717265891
