Ni Pd                                   
    1.000000000000000     
    22.6298439441380665    0.0000000000000000    0.0000000000000000
     0.0000000000000000   22.3882926929096584    0.0000000000000000
     0.0000000000000000    0.0000000000000000   21.5985438131955156
   Ni   Pd
     6     4
Direct
  0.4722236611722692  0.4972873434953618  0.5126620587429931
  0.5684804816160297  0.4218895918106032  0.4972089881404383
  0.6305060761988388  0.5044029565620574  0.5028718828930235
  0.5565137869386024  0.4859365115197097  0.5780765071005715
  0.5461744303209074  0.5029971742922796  0.4367820377767229
  0.5527814648320446  0.5708872301903594  0.5160109520917624
  0.4866166420879577  0.4017321746044724  0.5697132357259330
  0.4751492100335503  0.4123986934368051  0.4388624863363058
  0.4541976561486503  0.6050118743567865  0.4963779143782313
  0.4464770163771098  0.5292298239717165  0.4052790024258341
 
  0.00000000E+00  0.00000000E+00  0.00000000E+00
  0.00000000E+00  0.00000000E+00  0.00000000E+00
  0.00000000E+00  0.00000000E+00  0.00000000E+00
  0.00000000E+00  0.00000000E+00  0.00000000E+00
  0.00000000E+00  0.00000000E+00  0.00000000E+00
  0.00000000E+00  0.00000000E+00  0.00000000E+00
  0.00000000E+00  0.00000000E+00  0.00000000E+00
  0.00000000E+00  0.00000000E+00  0.00000000E+00
  0.00000000E+00  0.00000000E+00  0.00000000E+00
  0.00000000E+00  0.00000000E+00  0.00000000E+00
