Ni Pd 
 1.0000000000000000
    22.6298439441380665    0.0000000000000000    0.0000000000000000
     0.0000000000000000   22.3882926929096584    0.0000000000000000
     0.0000000000000000    0.0000000000000000   21.5985438131955156
 Ni  Pd 
   6   4
Cartesian
 10.6881960425494196 11.1325509250208796 11.0760878826853233
 12.8650117458598778  9.4449376848285702 10.7406029652829584
 14.2702069911616718 11.2919844155981846 10.8615664386400024
 12.5964747526525294 10.8813559694484869 12.4836634350766857
 12.3602567872806226 11.2612622947155980  9.4319641449363587
 12.5079430947783887 12.7807906920945484 11.1472747131033181
 11.0099316272475196  8.9928359713594226 12.3052536266678150
 10.7519983415668658  9.2323769815560688  9.4773499863305855
 10.2765650328146503 13.5456096511766830 10.7195761168699146
 10.1024010256062216 11.8502812117886389  8.7525003838061117
