Ni                                      
    1.000000000000000     
    21.5999724802267536    0.0000000000000000    0.0000000000000000
     0.0000000000000000   23.7183484611537025    0.0000000000000000
     0.0000000000000000    0.0000000000000000   23.1408401258409135
   Ni
    10
Direct
  0.4375440063350555  0.4697740757841013  0.4552411110047703
  0.5221354912834076  0.5019177971983614  0.4038131316384930
  0.4537649105227907  0.5676786915638424  0.4404944764484026
  0.5333600169391287  0.4188576582583979  0.4576666771851042
  0.4167017938706284  0.5347201883509471  0.5300529156474256
  0.5611171379017997  0.5901226810577932  0.4313778141773649
  0.5026370596702472  0.4731805283908015  0.5350018989029662
  0.5871394987270326  0.5042015750929473  0.4790359929963449
  0.5187603096691087  0.5702810148708715  0.5204427323110297
  0.4841061362453812  0.5366316676177559  0.6074311564241529
 
  0.00000000E+00  0.00000000E+00  0.00000000E+00
  0.00000000E+00  0.00000000E+00  0.00000000E+00
  0.00000000E+00  0.00000000E+00  0.00000000E+00
  0.00000000E+00  0.00000000E+00  0.00000000E+00
  0.00000000E+00  0.00000000E+00  0.00000000E+00
  0.00000000E+00  0.00000000E+00  0.00000000E+00
  0.00000000E+00  0.00000000E+00  0.00000000E+00
  0.00000000E+00  0.00000000E+00  0.00000000E+00
  0.00000000E+00  0.00000000E+00  0.00000000E+00
  0.00000000E+00  0.00000000E+00  0.00000000E+00
