Ni 
 1.0000000000000000
    21.5999724802267536    0.0000000000000000    0.0000000000000000
     0.0000000000000000   23.7183484611537025    0.0000000000000000
     0.0000000000000000    0.0000000000000000   23.1408401258409135
 Ni 
  10
Cartesian
  9.7963238091171245 11.2339503276991373 10.5468794593641348
 11.2688358809223175 12.0470784358220708  8.8591744954978946
  9.8109463259741148 13.5835784049525703 10.1442050898154772
 11.5524185154135157  9.6876303280097762 10.7012305782422725
  8.9621193803443475 12.6441193206230658 12.3058764017714157
 12.1527475320078420 14.0373638674442418  9.9255860211386349
 10.8922375174646753 11.0972555481038189 12.6709913108666452
 12.3922979370629935 11.8708639637958182 10.9413072579344117
 11.1878422555809873 13.5516716177676333 12.1312762060034682
 10.3570461732345152 12.8078727108684252 14.2508666215366766
