Pd                                      
    1.000000000000000     
    21.7335759932696675    0.0000000000000000    0.0000000000000000
     0.0000000000000000   20.7285809708446465    0.0000000000000000
     0.0000000000000000    0.0000000000000000   21.5514977803969678
   Pd
     5
Direct
  0.5690648291208538  0.5497493968682130  0.4921092698441392
  0.4341277291041428  0.4516320150807506  0.4824848774194059
  0.5496349613620490  0.4251437706062469  0.5114008105795532
  0.5192442946022119  0.4827767886073909  0.4062013287544460
  0.4860616020787419  0.5155560887038291  0.5695024070361060
 
  0.00000000E+00  0.00000000E+00  0.00000000E+00
  0.00000000E+00  0.00000000E+00  0.00000000E+00
  0.00000000E+00  0.00000000E+00  0.00000000E+00
  0.00000000E+00  0.00000000E+00  0.00000000E+00
  0.00000000E+00  0.00000000E+00  0.00000000E+00
