Pd 
 1.0000000000000000
    21.7335759932696675    0.0000000000000000    0.0000000000000000
     0.0000000000000000   20.7285809708446465    0.0000000000000000
     0.0000000000000000    0.0000000000000000   21.5514977803969678
 Pd 
   5
Cartesian
 12.3424025384545608 11.3590497301818036 10.6066939235196021
  9.4782882008181879  9.3716192048426485 10.4049879735183524
 11.9102278044884038  8.8634132862550814 11.0048203725519027
 11.2858928232669733 10.0030908467660904  8.7978248041428451
 10.5805756363550216 10.6666935687008504 12.2389668581189177
