Ni Pd                                   
    1.000000000000000     
    22.9091313467284827    0.0000000000000000    0.0000000000000000
     0.0000000000000000   25.3346026674641500    0.0000000000000000
     0.0000000000000000    0.0000000000000000   21.4156856954667667
   Ni   Pd
     6     4
Direct
  0.5411277621551136  0.4937983512460491  0.4865247438309410
  0.4831139660830672  0.4501699327435773  0.4141186919086550
  0.4552051751259896  0.5337067087165579  0.4440827746576161
  0.4582129030251920  0.5056986301166262  0.5474027807375279
  0.5422882537566736  0.5569957119419158  0.5664004027462255
  0.5390739662555930  0.5821498202593389  0.4603681319724870
  0.3905299297505707  0.4583903695723208  0.4749007410781800
  0.4548554269606910  0.6030690709267077  0.5296162977718595
  0.5461354442999991  0.5203275732867354  0.3705846144825671
  0.4866000370985333  0.4136863798645081  0.5224988399823189
 
  0.00000000E+00  0.00000000E+00  0.00000000E+00
  0.00000000E+00  0.00000000E+00  0.00000000E+00
  0.00000000E+00  0.00000000E+00  0.00000000E+00
  0.00000000E+00  0.00000000E+00  0.00000000E+00
  0.00000000E+00  0.00000000E+00  0.00000000E+00
  0.00000000E+00  0.00000000E+00  0.00000000E+00
  0.00000000E+00  0.00000000E+00  0.00000000E+00
  0.00000000E+00  0.00000000E+00  0.00000000E+00
  0.00000000E+00  0.00000000E+00  0.00000000E+00
  0.00000000E+00  0.00000000E+00  0.00000000E+00
