INCAR created by Atomic Simulation Environment
 ENCUT = 400.000000
 SIGMA = 0.200000
 GGA = PE
 IBRION = -1
 ISIF = 0
 ISMEAR = 1
 ISPIN = 2
 ISYM = 0
 KPAR = 1
 NSW = 0
 NCORE = 8
 LCHARG = .FALSE.
 LWAVE = .FALSE.
 LREAL = .FALSE.
