Ni Pd 
 1.0000000000000000
    22.9091313467284827    0.0000000000000000    0.0000000000000000
     0.0000000000000000   25.3346026674641500    0.0000000000000000
     0.0000000000000000    0.0000000000000000   21.4156856954667667
 Ni  Pd 
   6   4
Cartesian
 12.3967669785727264 12.5101850266675481 10.4192609969509054
 11.0677213044358922 11.4048763788975531  8.8686357465335917
 10.4283551466719135 13.5212474062940871  9.5103371248382889
 10.4972595801698194 12.8116738634857334 11.7230059010994268
 12.4233528330997132 14.1112650495297576 12.1298530029990062
 12.3497162985512432 14.7485343892060925  9.8590992185319983
  8.9467014554845097 11.6131378797068443 10.1703250074744904
 10.4203427200146574 15.2785152929648564 11.3420961722789428
 12.5114886265726302 13.1822923261453475  7.9363236273343931
 11.1475841632133026 10.4805800628089401 11.1896709333073900
