Pd                                      
    1.000000000000000     
    24.2045208200734976    0.0000000000000000    0.0000000000000000
     0.0000000000000000   22.0231673036074724    0.0000000000000000
     0.0000000000000000    0.0000000000000000   26.6913357724847984
   Pd
    16
Direct
  0.5460408305431724  0.5534012996438084  0.4857509859576302
  0.4450602970299803  0.5571376422867274  0.4410984203558351
  0.4810441338601456  0.4474130552049395  0.4699986674763686
  0.5955264699909446  0.4293835330559095  0.4787830915619996
  0.5375416740100565  0.5932369355195467  0.3943298291132363
  0.6383452876170247  0.5321830815600617  0.4390505322205658
  0.4551160804351203  0.5442213619493554  0.5413082838891669
  0.3878264251549296  0.4603723803215680  0.4013958442589267
  0.5358878791251077  0.4592874352762096  0.5567428551111121
  0.4677746566254188  0.5143705728569878  0.3482892503136084
  0.3803828269499369  0.4822087911599426  0.4957111595389979
  0.6330623500627708  0.5170895367271127  0.5400943980719927
  0.5554424434498968  0.4764515009805910  0.3965346347252184
  0.4764965859061195  0.3983050203771728  0.3797872913359738
  0.5509184567220446  0.5803122443889732  0.5826736808748064
  0.4840189188292410  0.5091748960791578  0.6308800461383061
 
  0.00000000E+00  0.00000000E+00  0.00000000E+00
  0.00000000E+00  0.00000000E+00  0.00000000E+00
  0.00000000E+00  0.00000000E+00  0.00000000E+00
  0.00000000E+00  0.00000000E+00  0.00000000E+00
  0.00000000E+00  0.00000000E+00  0.00000000E+00
  0.00000000E+00  0.00000000E+00  0.00000000E+00
  0.00000000E+00  0.00000000E+00  0.00000000E+00
  0.00000000E+00  0.00000000E+00  0.00000000E+00
  0.00000000E+00  0.00000000E+00  0.00000000E+00
  0.00000000E+00  0.00000000E+00  0.00000000E+00
  0.00000000E+00  0.00000000E+00  0.00000000E+00
  0.00000000E+00  0.00000000E+00  0.00000000E+00
  0.00000000E+00  0.00000000E+00  0.00000000E+00
  0.00000000E+00  0.00000000E+00  0.00000000E+00
  0.00000000E+00  0.00000000E+00  0.00000000E+00
  0.00000000E+00  0.00000000E+00  0.00000000E+00
