Pd 
 1.0000000000000000
    24.2045208200734976    0.0000000000000000    0.0000000000000000
     0.0000000000000000   22.0231673036074724    0.0000000000000000
     0.0000000000000000    0.0000000000000000   26.6913357724847984
 Pd 
  16
Cartesian
 13.1505583990771999 12.0222716607787721 12.9433063735214269
 10.7480231768516337 12.2742572893898725 11.7920887603699374
 11.6365419312021583  9.8816281647532360 12.4753979401990840
 14.3585433990718769  9.5563697059551931 12.7938288795669415
 13.0440065252748898 12.9773503439992162 10.5495236744989462
 15.3917860985118971 11.7739079736909176 11.7251014208920594
 11.0108834367514863 11.9721899559178837 14.4789369952128499
  9.5119975677002273 10.1438493180310392 10.7833095748701826
 12.9323263834500981 10.1593384445396584 14.8869844217243230
 11.3418898969232114 11.3426163990946574  9.4073652575535842
  9.2222028223500399 10.6488974749655334 13.2442398795710368
 15.2854601342288241 11.3974333534479140 14.3376760388492883
 13.4956983445852892 10.4483884433927194 10.5391517891059809
 11.5594326262663465  8.8148244129968063 10.0666533168246364
 13.3536599035364016 12.6864831601912496 15.5159643754009977
 11.7196713029946871 11.2868804101549092 16.8456289363145117
