Au Cu                                   
    1.000000000000000     
    22.1454616808045337    0.0000000000000000    0.0000000000000000
     0.0000000000000000   21.9699073999509800    0.0000000000000000
     0.0000000000000000    0.0000000000000000   22.1067794337017780
   Au   Cu
     4     4
Direct
  0.5946306561544006  0.4615964024635346  0.5830632492025956
  0.4642686322036838  0.6012967075745550  0.5550102407444726
  0.4150144235713356  0.4159216235036567  0.5335426245987591
  0.5311081847596455  0.5005155306566422  0.4053579385339035
  0.4837946535362079  0.4916300042356028  0.5865418195454097
  0.5524371224616544  0.5414163387341802  0.5110400817627365
  0.5229950285584053  0.4319407330550931  0.4978801916094895
  0.4462266271013675  0.5143437675336457  0.4816115396943346
 
  0.00000000E+00  0.00000000E+00  0.00000000E+00
  0.00000000E+00  0.00000000E+00  0.00000000E+00
  0.00000000E+00  0.00000000E+00  0.00000000E+00
  0.00000000E+00  0.00000000E+00  0.00000000E+00
  0.00000000E+00  0.00000000E+00  0.00000000E+00
  0.00000000E+00  0.00000000E+00  0.00000000E+00
  0.00000000E+00  0.00000000E+00  0.00000000E+00
  0.00000000E+00  0.00000000E+00  0.00000000E+00
