Au Cu 
 1.0000000000000000
    22.1454616808045337    0.0000000000000000    0.0000000000000000
     0.0000000000000000   21.9699073999509800    0.0000000000000000
     0.0000000000000000    0.0000000000000000   22.1067794337017780
 Au  Cu 
   4   4
Cartesian
 13.1683704100988646 10.1412302182743943 12.8896506460192803
 10.2814432040662496 13.2104329853084508 12.2694889755837977
  9.1906860141801197  9.1377595540125398 11.7949091204831262
 11.7616359539563753 10.9962798607637229  8.9611585388690376
 10.7138559612642137 10.8010656680936830 12.9665506333324227
 12.2339751265285397 11.8948668268103681 11.2974503693096775
 11.5819663641914676  9.4896979074873720 11.0065275803201086
  9.8818946714279470 11.3000849444561098 10.6468800807481809
