Au                                      
    1.000000000000000     
    22.6498957285341191    0.0000000000000000    0.0000000000000000
     0.0000000000000000   22.1319750036849214    0.0000000000000000
     0.0000000000000000    0.0000000000000000   22.0499498604805986
   Au
     8
Direct
  0.5187498645905009  0.5311354061770927  0.5754153788346554
  0.4828777311287079  0.5413629544219042  0.4528749828278833
  0.5670882164672144  0.6112837899070364  0.4998377794260576
  0.5102066641454516  0.4178567537514536  0.4378256598332375
  0.4139168565727550  0.4700560927978095  0.3909114822803821
  0.5974926419419035  0.4909003078948034  0.4801274001569378
  0.4996848001535834  0.4496346161836332  0.6585763693795849
  0.5445500602043634  0.4087884659736621  0.5541976254704563
 
  0.00000000E+00  0.00000000E+00  0.00000000E+00
  0.00000000E+00  0.00000000E+00  0.00000000E+00
  0.00000000E+00  0.00000000E+00  0.00000000E+00
  0.00000000E+00  0.00000000E+00  0.00000000E+00
  0.00000000E+00  0.00000000E+00  0.00000000E+00
  0.00000000E+00  0.00000000E+00  0.00000000E+00
  0.00000000E+00  0.00000000E+00  0.00000000E+00
  0.00000000E+00  0.00000000E+00  0.00000000E+00
