Au 
 1.0000000000000000
    22.6498957285341191    0.0000000000000000    0.0000000000000000
     0.0000000000000000   22.1319750036849214    0.0000000000000000
     0.0000000000000000    0.0000000000000000   22.0499498604805986
 Au 
   8
Cartesian
 11.9335504593579813 11.7351263060763173 12.5269178022682297
 11.4361858652593646 12.6686861049778479 10.0555258847307645
 13.5277947774550817 13.4414544025490166 11.2962278169937864
 10.9063776672411556 10.0320509194360863 10.4752247877917348
  9.0598577505154676  9.0633383092354922  9.2793923561603133
 13.4852218493268783 11.0158769502838343 10.3814933003698471
 10.4669568412015845  9.6100103923269913 13.0549835514987027
 12.8315624896792198  9.2133375475641266 12.2273867013444963
