Cu                                      
    1.000000000000000     
    20.8892998195872828    0.0000000000000000    0.0000000000000000
     0.0000000000000000   22.4614911981864580    0.0000000000000000
     0.0000000000000000    0.0000000000000000   25.3536423353588809
   Cu
    13
Direct
  0.4346059067546313  0.5090823286674196  0.5363366715918897
  0.6165846065509860  0.4520639159036289  0.5244675955175168
  0.4983829291121437  0.5681124811248559  0.6080180268016109
  0.5089780731153741  0.4432850514902401  0.4907085756830257
  0.4610355921351061  0.6128246796216936  0.5247687655350455
  0.5966678479676085  0.4010191978442874  0.4424308204881358
  0.4824456644817070  0.5407659981428934  0.4521627111354871
  0.3843595487006303  0.5826235635344452  0.5909004581357186
  0.5242634391079486  0.4643267770542098  0.5853508606965893
  0.4248212496200615  0.4910210886110823  0.6312340687201132
  0.5570543427209326  0.5477732710321024  0.5276372902665967
  0.5948957759850386  0.5097527999419791  0.4438730606185556
  0.5146499435027599  0.4575103740053781  0.3951737281535175
 
  0.00000000E+00  0.00000000E+00  0.00000000E+00
  0.00000000E+00  0.00000000E+00  0.00000000E+00
  0.00000000E+00  0.00000000E+00  0.00000000E+00
  0.00000000E+00  0.00000000E+00  0.00000000E+00
  0.00000000E+00  0.00000000E+00  0.00000000E+00
  0.00000000E+00  0.00000000E+00  0.00000000E+00
  0.00000000E+00  0.00000000E+00  0.00000000E+00
  0.00000000E+00  0.00000000E+00  0.00000000E+00
  0.00000000E+00  0.00000000E+00  0.00000000E+00
  0.00000000E+00  0.00000000E+00  0.00000000E+00
  0.00000000E+00  0.00000000E+00  0.00000000E+00
  0.00000000E+00  0.00000000E+00  0.00000000E+00
  0.00000000E+00  0.00000000E+00  0.00000000E+00
