Cu 
 1.0000000000000000
    20.8892998195872828    0.0000000000000000    0.0000000000000000
     0.0000000000000000   22.4614911981864580    0.0000000000000000
     0.0000000000000000    0.0000000000000000   25.3536423353588809
 Cu 
  13
Cartesian
  9.0800259049659573 11.4338584203649418 13.5997838265935336
 12.8802040477612607 10.1535251442049468 13.2967899022896869
 10.4107936217747348 12.7619505048980457 15.4158523062288815
 10.6299532193509947  9.9573296038020853 12.4379191232860364
  9.6293430758573173 13.7678266502283364 13.3074244014377765
 12.4675801110083633  9.0092092667548798 11.2183805794134770
 10.0763485063712164 12.1465566798113702 11.4621837628701435
  8.0315779618576499 13.0888904472588745 14.9802091210609447
 10.9504591319234592 10.4287048254358670 14.8418165568773279
  8.8757772263168118 11.0260748419577403 16.0016736738985337
 11.6346224106068679 12.3013372739280022 13.3777848813725413
 12.4281537524959429 11.4502023622674312 11.2530072626287687
 10.7483220914484203 10.2747741998640301 10.0219092761177926
