Pd                                      
    1.000000000000000     
    23.8572007531651806    0.0000000000000000    0.0000000000000000
     0.0000000000000000   24.2643167847130385    0.0000000000000000
     0.0000000000000000    0.0000000000000000   23.7139730703363867
   Pd
    16
Direct
  0.4820892882761330  0.4935557912948744  0.5089716161947379
  0.5419328638499401  0.5621741508312195  0.5711900068652498
  0.5495751506688120  0.4464852105169625  0.5801329304497600
  0.4786614248593428  0.5635998853398768  0.3845733014740706
  0.5804774959356408  0.4353807511802576  0.4709923950072857
  0.4513478586900386  0.4999720731278314  0.6139245435791120
  0.3893449580440066  0.4387842537217391  0.5265626799767196
  0.3770149514563977  0.5471669868625878  0.5428534130691365
  0.4820757981742268  0.3868706464155539  0.4929033035960854
  0.5618699585075627  0.5444389691133851  0.4552556478778418
  0.3988375492644461  0.5095077898230607  0.4388790575764921
  0.4916341685169365  0.4572660377924568  0.4053452548095028
  0.4486771024571540  0.6087670413246700  0.6002169032708683
  0.4563496432528544  0.3915907408540947  0.6012229805234619
  0.6296683369868666  0.5095391811265652  0.5366055735091684
  0.4635491537291643  0.5975728982880079  0.4896537724394268
 
  0.00000000E+00  0.00000000E+00  0.00000000E+00
  0.00000000E+00  0.00000000E+00  0.00000000E+00
  0.00000000E+00  0.00000000E+00  0.00000000E+00
  0.00000000E+00  0.00000000E+00  0.00000000E+00
  0.00000000E+00  0.00000000E+00  0.00000000E+00
  0.00000000E+00  0.00000000E+00  0.00000000E+00
  0.00000000E+00  0.00000000E+00  0.00000000E+00
  0.00000000E+00  0.00000000E+00  0.00000000E+00
  0.00000000E+00  0.00000000E+00  0.00000000E+00
  0.00000000E+00  0.00000000E+00  0.00000000E+00
  0.00000000E+00  0.00000000E+00  0.00000000E+00
  0.00000000E+00  0.00000000E+00  0.00000000E+00
  0.00000000E+00  0.00000000E+00  0.00000000E+00
  0.00000000E+00  0.00000000E+00  0.00000000E+00
  0.00000000E+00  0.00000000E+00  0.00000000E+00
  0.00000000E+00  0.00000000E+00  0.00000000E+00
