Pd 
 1.0000000000000000
    23.8572007531651806    0.0000000000000000    0.0000000000000000
     0.0000000000000000   24.2643167847130385    0.0000000000000000
     0.0000000000000000    0.0000000000000000   23.7139730703363867
 Pd 
  16
Cartesian
 11.3211416601890384 11.9293809726166380 11.9972353747461025
 13.0452426947164533 13.5195305425947510 13.4771974213904731
 13.1384902948482889 10.8669483944828453 13.6089318621271662
 11.0500206338334142 13.6411608437599785  9.8887338202789259
 13.8783197093388857 10.5377434380585591 11.1318492039395025
 10.6381099468699123 12.8297855020854179 14.4004621724858932
  9.1508204283451917 10.2189464511412336 12.0685452552604069
  8.9070874713111046 12.8148388778943936 12.3800798394819793
 11.6311763313298542  9.3830136837034193 11.7459456811546215
 13.3926215196771530 13.1041220940138405 10.8703084079358732
  9.3935140448572305 11.7146988469175799 10.0272079096474744
 11.9080251709086546 11.1594620128101791  9.5760573602210073
 11.5234466573376011 15.1958371003932715 14.7084741036388369
 10.6862157341474635 10.2412914058354421 14.0874797830745457
 15.1237071474892648 12.2305825598287896 12.6166489322659370
 10.8951757864917962 14.5493925286242565 12.3267076083261848
