Pd                                      
    1.000000000000000     
    24.0046759879143892    0.0000000000000000    0.0000000000000000
     0.0000000000000000   19.4682465909600459    0.0000000000000000
     0.0000000000000000    0.0000000000000000   22.3065666091157944
   Pd
     5
Direct
  0.4568332442472009  0.5107744757650383  0.4711986297537408
  0.4194820764214679  0.5308124597439282  0.5769914764769425
  0.5586183835006824  0.4727819422768171  0.4352453345991348
  0.5243844070355866  0.5048259564352287  0.5638400280770725
  0.6137817767071979  0.5223123790110826  0.5270669419976374
 
  0.00000000E+00  0.00000000E+00  0.00000000E+00
  0.00000000E+00  0.00000000E+00  0.00000000E+00
  0.00000000E+00  0.00000000E+00  0.00000000E+00
  0.00000000E+00  0.00000000E+00  0.00000000E+00
  0.00000000E+00  0.00000000E+00  0.00000000E+00
