Pd 
 1.0000000000000000
    24.0046759879143892    0.0000000000000000    0.0000000000000000
     0.0000000000000000   19.4682465909600459    0.0000000000000000
     0.0000000000000000    0.0000000000000000   22.3065666091157944
 Pd 
   5
Cartesian
 10.3656188082515879 10.0165117388196006 10.8639785794655843
  9.9230002645138367 10.3881842453565660 13.2067723656467635
 14.5876795872025458  9.1128349685413799  9.3451875528131740
 12.2744789802596390 10.0803593535786113 12.4584557661744668
 14.6156514536419646  9.8807988336099868 11.5503461994136405
