Cu                                      
    1.000000000000000     
    22.6400172832328792    0.0000000000000000    0.0000000000000000
     0.0000000000000000   22.7175602598870796    0.0000000000000000
     0.0000000000000000    0.0000000000000000   23.8432692817746243
   Cu
    13
Direct
  0.4251054649598677  0.5469727394825958  0.5725102660155279
  0.5194496623537946  0.5615166410000442  0.6151266512756706
  0.5154650945131833  0.4797289059077320  0.5481162807809568
  0.4644054215119858  0.4713546559333220  0.6355818502133413
  0.5080195279982532  0.5818310272001126  0.5146083513720582
  0.4159036770542631  0.4419291365722944  0.5496469013446036
  0.4310149705393181  0.5169580953393531  0.4749023634461310
  0.4808773854638124  0.4203594108360650  0.4679412134266132
  0.4902261789152135  0.5804898115055542  0.4115795570675790
  0.5487288369726825  0.5038199536788555  0.4540036604630881
  0.4625912707211852  0.4802492201889634  0.3839179994237124
  0.5492867951773894  0.4206204775994243  0.3882273348184136
  0.5578086538977139  0.5224307596123290  0.3557204617452898
 
  0.00000000E+00  0.00000000E+00  0.00000000E+00
  0.00000000E+00  0.00000000E+00  0.00000000E+00
  0.00000000E+00  0.00000000E+00  0.00000000E+00
  0.00000000E+00  0.00000000E+00  0.00000000E+00
  0.00000000E+00  0.00000000E+00  0.00000000E+00
  0.00000000E+00  0.00000000E+00  0.00000000E+00
  0.00000000E+00  0.00000000E+00  0.00000000E+00
  0.00000000E+00  0.00000000E+00  0.00000000E+00
  0.00000000E+00  0.00000000E+00  0.00000000E+00
  0.00000000E+00  0.00000000E+00  0.00000000E+00
  0.00000000E+00  0.00000000E+00  0.00000000E+00
  0.00000000E+00  0.00000000E+00  0.00000000E+00
  0.00000000E+00  0.00000000E+00  0.00000000E+00
