Cu 
 1.0000000000000000
    22.6400172832328792    0.0000000000000000    0.0000000000000000
     0.0000000000000000   22.7175602598870796    0.0000000000000000
     0.0000000000000000    0.0000000000000000   23.8432692817746243
 Cu 
  13
Cartesian
  9.6257391798158238 12.4265275021114618 13.6515109884178116
 11.7615421512716480 12.7544596054780293 14.6647804644438331
 11.6695157746779756 10.8982811326927642 13.0670001243682758
 10.5142031564781728 10.7077557312247684 15.1530379865027225
 11.4996028306768636 13.2174146890256115 12.2725339324371312
  9.4193215430340302 10.0400323629785522 13.1063575872477731
  9.7578198621055900 11.7456795713829436 11.3235325675851826
 10.8857757939094437  9.5509037467193050 11.1571587980414400
 11.0951396728411602 13.1853578513095933  9.8114378022179487
 12.4237997455759608 11.4441471749074690 10.8257514890057962
 10.4729771325915255 10.9094940785049239  9.1515052935401293
 12.4367505829485019  9.5579741475877587  9.2591257401843858
 12.6294324123413659 11.8681313141935227  8.4827868374231716
