Au                                      
    1.000000000000000     
    21.9696458254459444    0.0000000000000000    0.0000000000000000
     0.0000000000000000   22.5517169493161518    0.0000000000000000
     0.0000000000000000    0.0000000000000000   23.0871144776820643
   Au
     8
Direct
  0.4144983813622082  0.5144243697765690  0.4778557592786452
  0.5308129315315778  0.5960515866872956  0.6123315727038955
  0.5180360168586198  0.5859621795625898  0.4992659160822140
  0.5025204141466748  0.5452598190641949  0.3918039270084542
  0.6023636341059236  0.5147647299353318  0.5577422036022037
  0.5539819646853833  0.4039065511841918  0.5661818506298723
  0.4677563014626455  0.4938899097467468  0.5796343091447895
  0.5319353685998994  0.4630922245226058  0.4699951347345105
 
  0.00000000E+00  0.00000000E+00  0.00000000E+00
  0.00000000E+00  0.00000000E+00  0.00000000E+00
  0.00000000E+00  0.00000000E+00  0.00000000E+00
  0.00000000E+00  0.00000000E+00  0.00000000E+00
  0.00000000E+00  0.00000000E+00  0.00000000E+00
  0.00000000E+00  0.00000000E+00  0.00000000E+00
  0.00000000E+00  0.00000000E+00  0.00000000E+00
  0.00000000E+00  0.00000000E+00  0.00000000E+00
