Au 
 1.0000000000000000
    21.9696458254459444    0.0000000000000000    0.0000000000000000
     0.0000000000000000   22.5517169493161518    0.0000000000000000
     0.0000000000000000    0.0000000000000000   23.0871144776820643
 Au 
   8
Cartesian
  9.2283539384377242 11.6473438771859730 10.9292056961587623
 11.6660910101282500 13.3176957429694056 14.1378694894217567
 11.3666532317011590 13.1605530394246930 11.5398726178140318
 10.8961985931039447 12.2632377283553566  9.1170115452252372
 13.1486686638052497 11.5904741623478493 12.9094722210695156
 12.1512347438701855  9.2172413977805778 13.1333383116043603
 10.4328969304346533 11.1802679874481647 13.2729495337795989
 11.6666961448308300 10.4765287524213164 10.8828702298347277
