Al                                      
    1.000000000000000     
    24.5952304804204438    0.0000000000000000    0.0000000000000000
     0.0000000000000000   22.3545268309908174    0.0000000000000000
     0.0000000000000000    0.0000000000000000   19.8533357851939414
   Al
     7
Direct
  0.4277343006842398  0.5288250561908828  0.5545802135690969
  0.5012319500350674  0.4488681252191468  0.5165847641882725
  0.5764712769534127  0.5893207325174818  0.4572809763615217
  0.5520321294053016  0.4798298873598201  0.4076972970176911
  0.4765617759549136  0.5559240313976990  0.4395835743351609
  0.5991562125425276  0.4892259204280833  0.5312218787763134
  0.5287100853727847  0.5674227151710997  0.5709367773763200
 
  0.00000000E+00  0.00000000E+00  0.00000000E+00
  0.00000000E+00  0.00000000E+00  0.00000000E+00
  0.00000000E+00  0.00000000E+00  0.00000000E+00
  0.00000000E+00  0.00000000E+00  0.00000000E+00
  0.00000000E+00  0.00000000E+00  0.00000000E+00
  0.00000000E+00  0.00000000E+00  0.00000000E+00
  0.00000000E+00  0.00000000E+00  0.00000000E+00
