Al 
 1.0000000000000000
    24.5952304804204438    0.0000000000000000    0.0000000000000000
     0.0000000000000000   22.3545268309908174    0.0000000000000000
     0.0000000000000000    0.0000000000000000   19.8533357851939414
 Al 
   7
Cartesian
 10.5228903975435415 11.8217416028444706 11.0101612391107011
 12.3271656652710213 10.0296527412213798 10.2536782856883342
 14.1742707391512734 13.1780164084458686  9.0782296602832382
 13.5715548444405556 10.7263954821648912  8.0948812790998783
 11.7251267524846554 12.4277709274596599  8.7232550037651571
 14.7372713143406902 10.9359851426245367 10.5524849951499142
 13.0069389751690583 12.6849613212683607 11.3349378260425055
