Ni Pd                                   
    1.000000000000000     
    22.0899813031996857    0.0000000000000000    0.0000000000000000
     0.0000000000000000   21.6872348476615713    0.0000000000000000
     0.0000000000000000    0.0000000000000000   24.2059569777757915
   Ni   Pd
     6     4
Direct
  0.5297913671418666  0.5252041312410494  0.5221345745763220
  0.4464928567441629  0.5817872728364792  0.5774739432931388
  0.4940004923467490  0.4930225358975294  0.6110232145055851
  0.4185749844403221  0.4819119855426199  0.5445256247343440
  0.5087898551987761  0.4219901201977442  0.5396394864421549
  0.4396849937354887  0.5636609489043302  0.4852868880887354
  0.5541197363561585  0.5892550396779819  0.6046360218351986
  0.5989104829478394  0.4689695346154206  0.5855330141049905
  0.4644216626637649  0.4558420404851793  0.4514111051473527
  0.5273959347715985  0.5547074179317237  0.4246439507237957
 
  0.00000000E+00  0.00000000E+00  0.00000000E+00
  0.00000000E+00  0.00000000E+00  0.00000000E+00
  0.00000000E+00  0.00000000E+00  0.00000000E+00
  0.00000000E+00  0.00000000E+00  0.00000000E+00
  0.00000000E+00  0.00000000E+00  0.00000000E+00
  0.00000000E+00  0.00000000E+00  0.00000000E+00
  0.00000000E+00  0.00000000E+00  0.00000000E+00
  0.00000000E+00  0.00000000E+00  0.00000000E+00
  0.00000000E+00  0.00000000E+00  0.00000000E+00
  0.00000000E+00  0.00000000E+00  0.00000000E+00
