Ni Pd 
 1.0000000000000000
    22.0899813031996857    0.0000000000000000    0.0000000000000000
     0.0000000000000000   21.6872348476615713    0.0000000000000000
     0.0000000000000000    0.0000000000000000   24.2059569777757915
 Ni  Pd 
   6   4
Cartesian
 11.5761689769456346 11.4070761123364655 12.6382832486580661
  9.9704350183946460 12.6896996807627218 13.9450557807086089
 10.8751258351146802 10.6426536723941396 14.9682437898610843
  9.2840029072806676 10.4598294080819727 13.1367484519665148
 11.2848411204397383  9.0350684024557495 13.1397382388017743
  9.5272428967435925 12.2750207488517873 11.5472659344008566
 12.3667726260644706 12.6132517862763240 14.6734519265525876
 13.1974320211132721 10.2734762448107197 14.1792712579476028
 10.3956285861587787  9.9529759942253904 10.9482224671816226
 11.5786653334747793 12.0441989395392923 10.2362160683372423
