Au                                      
    1.000000000000000     
    22.6418499335821792    0.0000000000000000    0.0000000000000000
     0.0000000000000000   24.2944298383304442    0.0000000000000000
     0.0000000000000000    0.0000000000000000   21.3916136925080451
   Au
     8
Direct
  0.4285447274534960  0.6003172131191467  0.4467024847193908
  0.3627135902856901  0.5787441848039687  0.5453226830905051
  0.5292661796816570  0.5501921410717726  0.4202195825932228
  0.5007893717622985  0.4459325418623237  0.6052586188230629
  0.6283778051117573  0.4941827554718138  0.4040683126457419
  0.4633892685625746  0.5224522365537453  0.5279955260230801
  0.5650846176259364  0.4685908613359654  0.5063066329329847
  0.6670265800645027  0.4170233998040725  0.4804752213266093
 
  0.00000000E+00  0.00000000E+00  0.00000000E+00
  0.00000000E+00  0.00000000E+00  0.00000000E+00
  0.00000000E+00  0.00000000E+00  0.00000000E+00
  0.00000000E+00  0.00000000E+00  0.00000000E+00
  0.00000000E+00  0.00000000E+00  0.00000000E+00
  0.00000000E+00  0.00000000E+00  0.00000000E+00
  0.00000000E+00  0.00000000E+00  0.00000000E+00
  0.00000000E+00  0.00000000E+00  0.00000000E+00
