Au 
 1.0000000000000000
    22.6418499335821792    0.0000000000000000    0.0000000000000000
     0.0000000000000000   24.2944298383304442    0.0000000000000000
     0.0000000000000000    0.0000000000000000   21.3916136925080451
 Au 
   8
Cartesian
  9.7037130737733523 14.5854885308035183  9.5536135206116022
  8.2112823346907078 14.0596573895625045 11.6673381728107248
 11.9827745500598279 13.3671452370118171  8.9892285851136435
 11.3386250002295892 10.8329158056119574 12.9486451164797778
 14.2284841858167574 12.0069197425758745  8.6416561747475242
 10.4916931936912174 12.6928677879479732 11.2943460072152408
 12.7950655700245850 11.3843699658150150 10.8301745116140165
 15.1031804838640173 10.1296021834178998 10.2798564078850205
