Al                                      
    1.000000000000000     
    22.8604333590981916    0.0000000000000000    0.0000000000000000
     0.0000000000000000   23.5723942857588398    0.0000000000000000
     0.0000000000000000    0.0000000000000000   22.4417036601805222
   Al
     7
Direct
  0.4838143389620242  0.4182264330977933  0.5035538025216376
  0.5625502211464118  0.5171233341186851  0.5064240713851939
  0.4896294891758522  0.5670093285520436  0.4348589453777310
  0.4169337814928495  0.4769122829590587  0.4336661781412977
  0.4394599350657731  0.5309476379510577  0.5314750812948037
  0.5338448398763633  0.4620362361153796  0.4112250268141913
  0.5109628086635951  0.4734928998065610  0.6023141417153975
 
  0.00000000E+00  0.00000000E+00  0.00000000E+00
  0.00000000E+00  0.00000000E+00  0.00000000E+00
  0.00000000E+00  0.00000000E+00  0.00000000E+00
  0.00000000E+00  0.00000000E+00  0.00000000E+00
  0.00000000E+00  0.00000000E+00  0.00000000E+00
  0.00000000E+00  0.00000000E+00  0.00000000E+00
  0.00000000E+00  0.00000000E+00  0.00000000E+00
