Al 
 1.0000000000000000
    22.8604333590981916    0.0000000000000000    0.0000000000000000
     0.0000000000000000   23.5723942857588398    0.0000000000000000
     0.0000000000000000    0.0000000000000000   22.4417036601805222
 Al 
   7
Cartesian
 11.2040237369686171  9.8017232421934253 11.3848527912730688
 13.2589576276996688 11.6235540901334602 11.8871018223846736
 10.4424831032227790 13.5418452429965299  9.1011029941827690
  9.4375684861910401 11.0675942720702007  9.6855218528852625
 10.6554830708107779 12.6022261116401708 11.6232831469452975
 12.1577363435532604 11.4728793179783661  9.3820961743035429
 11.4195243442512062 11.1147117855137267 13.7656007563325549
