Ni Pd                                   
    1.000000000000000     
    22.6298439441380665    0.0000000000000000    0.0000000000000000
     0.0000000000000000   22.3882926929096584    0.0000000000000000
     0.0000000000000000    0.0000000000000000   21.5985438131955156
   Ni   Pd
     6     4
Direct
  0.4839547074648979  0.4974945252868033  0.5149358168281434
  0.5709863740706360  0.4271021101350329  0.4864096096695195
  0.5967745804710216  0.5302421246468872  0.4975957859521185
  0.5621398257966023  0.4757321799935053  0.5825068429151543
  0.5348359586948508  0.4985382746892763  0.4185490250286739
  0.5327041961000086  0.5725264636663406  0.5697910659507575
  0.4946549319282027  0.3933867386375583  0.5628515723347823
  0.4699943540147775  0.4117635230712013  0.4404590230449437
  0.5138072571817845  0.6002363485906822  0.4614627236862064
  0.4292682400611801  0.5247510854816103  0.4192836000737464
 
  0.00000000E+00  0.00000000E+00  0.00000000E+00
  0.00000000E+00  0.00000000E+00  0.00000000E+00
  0.00000000E+00  0.00000000E+00  0.00000000E+00
  0.00000000E+00  0.00000000E+00  0.00000000E+00
  0.00000000E+00  0.00000000E+00  0.00000000E+00
  0.00000000E+00  0.00000000E+00  0.00000000E+00
  0.00000000E+00  0.00000000E+00  0.00000000E+00
  0.00000000E+00  0.00000000E+00  0.00000000E+00
  0.00000000E+00  0.00000000E+00  0.00000000E+00
  0.00000000E+00  0.00000000E+00  0.00000000E+00
