Ni Pd 
 1.0000000000000000
    22.6298439441380665    0.0000000000000000    0.0000000000000000
     0.0000000000000000   22.3882926929096584    0.0000000000000000
     0.0000000000000000    0.0000000000000000   21.5985438131955156
 Ni  Pd 
   6   4
Cartesian
 11.0722298863339894 11.1565736334588230 11.1159321084255396
 12.9174215297985864  9.5307901663056747 10.5111407450555330
 13.4689319426014471 11.9034897472035652 10.7519676523276182
 12.7884021849463831 10.5978527646429992 12.7289547219779458
 12.1498002571264418 11.1505718039966606  8.8306724779011692
 12.0718444649996552 12.9392291282817915 12.4054797780808119
 11.1117787833652670  8.8550849031326919 12.0430435576725312
 10.5920795162296439  9.2780665023392821  9.5471784617845277
 11.5160412151482383 13.3213690447026281  9.9848245659768313
  9.7404556622806791 11.6809581025997815  9.0766456214371374
