Ni                                      
    1.000000000000000     
    21.8944313121142820    0.0000000000000000    0.0000000000000000
     0.0000000000000000   23.4207075022136735    0.0000000000000000
     0.0000000000000000    0.0000000000000000   22.2810325250322485
   Ni
    10
Direct
  0.4806414620883337  0.5929061662422535  0.5124296206755512
  0.5567098840140705  0.5223323439355210  0.5000480784446447
  0.4593638085864798  0.5643270329039491  0.4161332674335434
  0.4746047403311071  0.4740637332664177  0.4610924187543530
  0.5495644967200637  0.5166746303749267  0.3928024573207851
  0.3947452838360244  0.5335744525734415  0.4923007593777203
  0.5696617969763093  0.4344066903419959  0.4445406161569396
  0.5561925017381829  0.6043889229152561  0.4400770567774130
  0.4665486557741635  0.5067358804638399  0.5629723041765380
  0.5343229848943148  0.4348499474057113  0.5424779407335175
 
  0.00000000E+00  0.00000000E+00  0.00000000E+00
  0.00000000E+00  0.00000000E+00  0.00000000E+00
  0.00000000E+00  0.00000000E+00  0.00000000E+00
  0.00000000E+00  0.00000000E+00  0.00000000E+00
  0.00000000E+00  0.00000000E+00  0.00000000E+00
  0.00000000E+00  0.00000000E+00  0.00000000E+00
  0.00000000E+00  0.00000000E+00  0.00000000E+00
  0.00000000E+00  0.00000000E+00  0.00000000E+00
  0.00000000E+00  0.00000000E+00  0.00000000E+00
  0.00000000E+00  0.00000000E+00  0.00000000E+00
