Ni 
 1.0000000000000000
    21.8944313121142820    0.0000000000000000    0.0000000000000000
     0.0000000000000000   23.4207075022136735    0.0000000000000000
     0.0000000000000000    0.0000000000000000   22.2810325250322485
 Ni 
  10
Cartesian
 10.5058116090516034 13.9609058429315365 11.4629140823523450
 12.2190772443781785 12.2574730759880683 11.1583504536521136
 10.0262766241080339 13.2505591553679061  9.2190979762259726
 10.3438145795928076 11.0601977683659545 10.2459522813509825
 12.0387798970250905 12.0645441352649581  8.6996992201946348
  8.5734726523095475 12.5611696960466581 11.0134582355668833
 12.6448107724447869 10.1432907883674073  9.9524332537116802
 12.1790659022764132 14.2362155622337614  9.7383387653587654
 10.2282099535354956 11.8581083473607514 12.5975411034209195
 11.6401894282526435 10.0265680292720383 12.0785387826632924
