Au                                      
    1.000000000000000     
    22.3876804463521211    0.0000000000000000    0.0000000000000000
     0.0000000000000000   22.8051618011792669    0.0000000000000000
     0.0000000000000000    0.0000000000000000   22.2723743332034090
   Au
     8
Direct
  0.5658949833484551  0.4503899951430805  0.4907235315000453
  0.4576555836260414  0.4867801718161525  0.5475846896033826
  0.4613821637399794  0.4831791321352566  0.4194509073578118
  0.4472154967386401  0.5884329467009611  0.4727420300706951
  0.5589597706482736  0.5569551956653099  0.4313306478066033
  0.4633755377070631  0.3844872729233394  0.4898695456622323
  0.4601659285957045  0.5928899245329891  0.5950528812689364
  0.5675757155698021  0.5507244546720143  0.5547701352682368
 
  0.00000000E+00  0.00000000E+00  0.00000000E+00
  0.00000000E+00  0.00000000E+00  0.00000000E+00
  0.00000000E+00  0.00000000E+00  0.00000000E+00
  0.00000000E+00  0.00000000E+00  0.00000000E+00
  0.00000000E+00  0.00000000E+00  0.00000000E+00
  0.00000000E+00  0.00000000E+00  0.00000000E+00
  0.00000000E+00  0.00000000E+00  0.00000000E+00
  0.00000000E+00  0.00000000E+00  0.00000000E+00
