Au 
 1.0000000000000000
    22.3876804463521211    0.0000000000000000    0.0000000000000000
     0.0000000000000000   22.8051618011792669    0.0000000000000000
     0.0000000000000000    0.0000000000000000   22.2723743332034090
 Au 
   8
Cartesian
 12.6380129746185208 10.2898425123920969 10.8069321874303341
 10.3776577283324443 11.2257389477526885 12.0672853647474998
 10.4575763783241662 10.9819780328642178  9.3231472192036833
  9.4351549601297773 13.1582631909722902 10.4660478791759708
 12.0751114721216268 12.8900644392493593 10.3375538059853724
 10.4619012847503221  8.8924283958389108 10.8349674124668844
 10.8905599436209517 13.8390275057921990 12.5263758359031367
 12.8168100527763400 12.0833198924308896 12.7611389345994048
