Au                                      
    1.000000000000000     
    22.7863745721623943    0.0000000000000000    0.0000000000000000
     0.0000000000000000   23.2212662568391224    0.0000000000000000
     0.0000000000000000    0.0000000000000000   22.7577581946575194
   Au
     8
Direct
  0.5197981191866732  0.5810326060431760  0.5081294843226833
  0.4497857473775351  0.5774886388665614  0.4036578078973877
  0.5764429007910381  0.4899940724698103  0.5412632790762563
  0.4824362371742023  0.4752785798037172  0.4477708921438134
  0.5781036759164013  0.4107743577845756  0.4417952953775738
  0.4972725544314426  0.3911516221263812  0.5278727428049274
  0.4031298930409431  0.5413475579243843  0.5052764031234483
  0.6133967829193346  0.3823554203219929  0.5567208346527778
 
  0.00000000E+00  0.00000000E+00  0.00000000E+00
  0.00000000E+00  0.00000000E+00  0.00000000E+00
  0.00000000E+00  0.00000000E+00  0.00000000E+00
  0.00000000E+00  0.00000000E+00  0.00000000E+00
  0.00000000E+00  0.00000000E+00  0.00000000E+00
  0.00000000E+00  0.00000000E+00  0.00000000E+00
  0.00000000E+00  0.00000000E+00  0.00000000E+00
  0.00000000E+00  0.00000000E+00  0.00000000E+00
