Au 
 1.0000000000000000
    22.7863745721623943    0.0000000000000000    0.0000000000000000
     0.0000000000000000   23.2212662568391224    0.0000000000000000
     0.0000000000000000    0.0000000000000000   22.7577581946575194
 Au 
   8
Cartesian
 11.7056545210948162 13.4689550669715210 11.4343564947547165
 10.2728173796015767 13.4331434349716723  9.2937795697963725
 12.9877596062468079 11.2703539343056001 12.2151487022440826
 11.0470428084140160 11.0880789171396987 10.2560337489824267
 13.2406039113015837  9.5346939827653596 10.1955947306568735
 11.4260922414021007  9.1139305623763267 12.0555756892822217
  9.2713004341949734 12.6199499477058570 11.4759925565289773
 13.9369301164582726  8.8593672127898255 12.5681008266911451
