Au                                      
    1.000000000000000     
    21.1330681797317723    0.0000000000000000    0.0000000000000000
     0.0000000000000000   21.3001004655478710    0.0000000000000000
     0.0000000000000000    0.0000000000000000   23.0346515859654772
   Au
     8
Direct
  0.4749883308970447  0.4833869531627061  0.3908551853729482
  0.4456891214115043  0.4484567697987537  0.4980256099575563
  0.4260354013588097  0.4228106852995757  0.6092223397508535
  0.4463776995600943  0.5465651880165117  0.5830204951092200
  0.4712417427293652  0.5774164103799178  0.4718527436962506
  0.5741492093477122  0.4749729816608348  0.4669725822810514
  0.5492244759709914  0.4441944535940688  0.5781412629894102
  0.5701550433901461  0.5686440152612892  0.5499649222460995
 
  0.00000000E+00  0.00000000E+00  0.00000000E+00
  0.00000000E+00  0.00000000E+00  0.00000000E+00
  0.00000000E+00  0.00000000E+00  0.00000000E+00
  0.00000000E+00  0.00000000E+00  0.00000000E+00
  0.00000000E+00  0.00000000E+00  0.00000000E+00
  0.00000000E+00  0.00000000E+00  0.00000000E+00
  0.00000000E+00  0.00000000E+00  0.00000000E+00
  0.00000000E+00  0.00000000E+00  0.00000000E+00
