Au 
 1.0000000000000000
    21.1330681797317723    0.0000000000000000    0.0000000000000000
     0.0000000000000000   21.3001004655478710    0.0000000000000000
     0.0000000000000000    0.0000000000000000   23.0346515859654772
 Au 
   8
Cartesian
 10.0370935484898300 10.2952954851543286  9.0049203629296510
  9.4159329567784997  9.5492498478583823 11.4703643976762528
  9.0034527914781801  9.0060991313425731 14.0311004291607464
  9.4353762803633661 11.6431128452835715 13.4295050448375530
  9.9604219883555931 12.2997680716810880 10.8704752120131172
 12.1343795537290422 10.1185367050649067 10.7581546715284961
 11.6078950051904659  9.4634112019607741 13.3171602331750165
 12.0471947557776389 12.1102560407700395 12.6673245902790672
