Pd                                      
    1.000000000000000     
    23.7418339280063648    0.0000000000000000    0.0000000000000000
     0.0000000000000000   25.6332492956472038    0.0000000000000000
     0.0000000000000000    0.0000000000000000   24.2463547799000629
   Pd
    16
Direct
  0.6157430440873384  0.5182620717712622  0.4819732242804384
  0.5433619441781599  0.5946990917456098  0.5191603739314977
  0.5607958559908979  0.4932687228295123  0.3876312661505550
  0.5746425189051533  0.5925412886048156  0.4147770467064762
  0.5872550477512422  0.4160700663174558  0.4556298630452839
  0.5735750639666100  0.5219400391097827  0.5895735020869507
  0.4790346809994994  0.5469768784460248  0.4425144347271209
  0.5203998526689138  0.4773393862981290  0.5090767951476914
  0.4868058568906591  0.4869031942781721  0.6458059638962274
  0.4551296676852356  0.5430202266694639  0.5589435472427420
  0.4734449683772978  0.4379444300494951  0.4218761078846751
  0.3952295254218699  0.4904947875036082  0.4817032254134304
  0.5025190529083603  0.3668668880331548  0.5036460860986975
  0.5482705656891911  0.4168578194411344  0.5905099772334519
  0.4379188980861466  0.4345245162725065  0.5653517553232067
  0.3957100648508674  0.3871011563336289  0.4776695010311363
 
  0.00000000E+00  0.00000000E+00  0.00000000E+00
  0.00000000E+00  0.00000000E+00  0.00000000E+00
  0.00000000E+00  0.00000000E+00  0.00000000E+00
  0.00000000E+00  0.00000000E+00  0.00000000E+00
  0.00000000E+00  0.00000000E+00  0.00000000E+00
  0.00000000E+00  0.00000000E+00  0.00000000E+00
  0.00000000E+00  0.00000000E+00  0.00000000E+00
  0.00000000E+00  0.00000000E+00  0.00000000E+00
  0.00000000E+00  0.00000000E+00  0.00000000E+00
  0.00000000E+00  0.00000000E+00  0.00000000E+00
  0.00000000E+00  0.00000000E+00  0.00000000E+00
  0.00000000E+00  0.00000000E+00  0.00000000E+00
  0.00000000E+00  0.00000000E+00  0.00000000E+00
  0.00000000E+00  0.00000000E+00  0.00000000E+00
  0.00000000E+00  0.00000000E+00  0.00000000E+00
  0.00000000E+00  0.00000000E+00  0.00000000E+00
