Pd 
 1.0000000000000000
    23.7418339280063648    0.0000000000000000    0.0000000000000000
     0.0000000000000000   25.6332492956472038    0.0000000000000000
     0.0000000000000000    0.0000000000000000   24.2463547799000629
 Pd 
  16
Cartesian
 14.7838340550556655 14.3242277255900099 11.2194518593992640
 12.7800933982862901 15.6087054083618444 12.3745808334448668
 13.8429342951462875 13.2054128407339046  9.0764774810509223
 13.0225401954341393 15.5394965203531434  9.7929194274756881
 14.2087301554298158 11.7591425797434379 11.1787198174868383
 13.7508288097359959 13.4364312672544397 13.4523519083088594
 12.1847088435289539 13.4103248750418693 11.0777265163846454
 12.2880998458542283 11.3879878277825757 12.8937291060844696
 12.0253350631424638 12.2521442465203823 15.3227532822608392
 11.1307103786329922 13.8250109539807209 13.5109439951166852
 11.4618632440045403 10.8328301069741002 10.5299271766873090
  9.8043676480020299 12.4995469847831622 11.7111424615937203
 11.2310492465856502  9.0454591576910666 12.5348457804835416
 11.8926176488851532  9.7295041280590748 14.9215518328180838
  9.9336004495998722 11.0932779986442718 13.9157542975742921
  9.1507540210590790 10.0624923195532325 11.5694801087474239
