Ni Pd                                   
    1.000000000000000     
    22.1478365229388992    0.0000000000000000    0.0000000000000000
     0.0000000000000000   22.0686447996362105    0.0000000000000000
     0.0000000000000000    0.0000000000000000   22.9459903803158625
   Ni   Pd
     6     4
Direct
  0.4513320692603814  0.5307027981809227  0.5204273604877456
  0.5322007947241509  0.5164332374850389  0.4556161453308939
  0.4873608396812446  0.4257265758479982  0.4249141103978029
  0.5408806405094155  0.5846003103610000  0.5342043156229519
  0.5865781729516087  0.4236049101189535  0.4511786838442637
  0.5108224623120026  0.4408933369391634  0.5231501453838097
  0.4263468775688388  0.5197989729845298  0.4158925718150261
  0.6089437190806318  0.4954996474893171  0.5348274869137498
  0.4015865362971500  0.4331900933767409  0.4948544759021675
  0.5112770169832007  0.5114244698259426  0.6088118811610795
 
  0.00000000E+00  0.00000000E+00  0.00000000E+00
  0.00000000E+00  0.00000000E+00  0.00000000E+00
  0.00000000E+00  0.00000000E+00  0.00000000E+00
  0.00000000E+00  0.00000000E+00  0.00000000E+00
  0.00000000E+00  0.00000000E+00  0.00000000E+00
  0.00000000E+00  0.00000000E+00  0.00000000E+00
  0.00000000E+00  0.00000000E+00  0.00000000E+00
  0.00000000E+00  0.00000000E+00  0.00000000E+00
  0.00000000E+00  0.00000000E+00  0.00000000E+00
  0.00000000E+00  0.00000000E+00  0.00000000E+00
