Ni Pd 
 1.0000000000000000
    22.1478365229388992    0.0000000000000000    0.0000000000000000
     0.0000000000000000   22.0686447996362105    0.0000000000000000
     0.0000000000000000    0.0000000000000000   22.9459903803158625
 Ni  Pd 
   6   4
Cartesian
  9.9936555902407243 11.7136484306403386 11.9379203845692921
 11.7889346445362264 11.3984275993103825 10.4564240782995217
 10.7940465898075466  9.3927655457769905  9.7476217154674689
 11.9799626643488768 12.8995470222352626 12.2572143114989416
 12.9884342225697882  9.3471789267039682 10.3528858033195856
 11.3141088545519626  9.7291852031964705 12.0022327955770454
  9.4414758622266870 11.4714031591413992  9.5439662989652856
 13.4903563431385702 10.9381924620228901 12.2725416498696482
  8.8957335585519353  9.5611752473508886 11.3565993723457570
 11.3221904699807396 11.2848274478166388 13.9736715393748359
