Ni Pd                                   
    1.000000000000000     
    21.0800591662076684    0.0000000000000000    0.0000000000000000
     0.0000000000000000   22.2941819475121079    0.0000000000000000
     0.0000000000000000    0.0000000000000000   25.3366283309384777
   Ni   Pd
     6     4
Direct
  0.5722491834945785  0.5336859318222003  0.4838048898526739
  0.5490878370577920  0.5066872713316642  0.3982951726769926
  0.4841131646133457  0.5749863905263425  0.4451070515023566
  0.4484979240012583  0.4788048949167512  0.4223298379499821
  0.4628421706675592  0.5046058731944728  0.5094107943061855
  0.4815513540778646  0.4191696057004574  0.5579477711914647
  0.5096195825175552  0.5997996364280854  0.5413564382073319
  0.5704513375972123  0.4864385823071718  0.5715321560714685
  0.4535724875312633  0.5122101613687200  0.6061434455924974
  0.5389526221505958  0.4286662949071602  0.4715057593568218
 
  0.00000000E+00  0.00000000E+00  0.00000000E+00
  0.00000000E+00  0.00000000E+00  0.00000000E+00
  0.00000000E+00  0.00000000E+00  0.00000000E+00
  0.00000000E+00  0.00000000E+00  0.00000000E+00
  0.00000000E+00  0.00000000E+00  0.00000000E+00
  0.00000000E+00  0.00000000E+00  0.00000000E+00
  0.00000000E+00  0.00000000E+00  0.00000000E+00
  0.00000000E+00  0.00000000E+00  0.00000000E+00
  0.00000000E+00  0.00000000E+00  0.00000000E+00
  0.00000000E+00  0.00000000E+00  0.00000000E+00
