Ni Pd 
 1.0000000000000000
    21.0800591662076684    0.0000000000000000    0.0000000000000000
     0.0000000000000000   22.2941819475121079    0.0000000000000000
     0.0000000000000000    0.0000000000000000   25.3366283309384777
 Ni  Pd 
   6   4
Cartesian
 12.2737275488613040 12.0487893336577834 12.2020395723505555
 11.6138693754046454 11.2412072590454191 10.0379876744892194
 10.2209069555013414 12.8465742206313109 11.2583405578174798
  9.4284269884713794 10.5726982285606272 10.6502631045989844
  9.6332476322977598 11.2404544174835301 12.9407949728844329
 10.0717068313646259  9.2344716162503868 14.2019078649001376
 10.7676102543921122 13.2302779591403077 13.8092495126273445
 11.8888633590712267 10.9012292245497182 14.3502188246944709
  9.6462611615044747 11.4558150064870201 15.3947556316613170
 11.3510458722683278  9.7038488692968237 12.0259191213594399
