Au                                      
    1.000000000000000     
    21.1330681797317723    0.0000000000000000    0.0000000000000000
     0.0000000000000000   21.3001004655478710    0.0000000000000000
     0.0000000000000000    0.0000000000000000   23.0346515859654772
   Au
     8
Direct
  0.4755907334293530  0.4839922691527838  0.3906028699738006
  0.4466201294531197  0.4494234508211246  0.4984050462206185
  0.4264443229558808  0.4231418219728390  0.6099748771184269
  0.4454796277148668  0.5468948412727377  0.5830322270066215
  0.4704194512804848  0.5778023496350899  0.4716701408005444
  0.5745028521160661  0.4741810871016588  0.4667160446292863
  0.5495714695787243  0.4432709437072803  0.5780511704949758
  0.5692324381346786  0.5677406935386718  0.5496027651860524
 
  0.00000000E+00  0.00000000E+00  0.00000000E+00
  0.00000000E+00  0.00000000E+00  0.00000000E+00
  0.00000000E+00  0.00000000E+00  0.00000000E+00
  0.00000000E+00  0.00000000E+00  0.00000000E+00
  0.00000000E+00  0.00000000E+00  0.00000000E+00
  0.00000000E+00  0.00000000E+00  0.00000000E+00
  0.00000000E+00  0.00000000E+00  0.00000000E+00
  0.00000000E+00  0.00000000E+00  0.00000000E+00
