Au 
 1.0000000000000000
    21.1330681797317723    0.0000000000000000    0.0000000000000000
     0.0000000000000000   21.3001004655478710    0.0000000000000000
     0.0000000000000000    0.0000000000000000   23.0346515859654772
 Au 
   8
Cartesian
 10.0585147646865920 10.3147267469262722  9.0377293826433807
  9.4338140014009486  9.5662353938395199 11.4784965476628074
  9.0337799899795570  9.0367143823942513 14.0209556593340210
  9.5537875085893305 11.5018054698821164 13.4206375803251099
 10.0801688738359765 12.1590366137500894 10.8560437933639555
 11.9930834793488845 10.2389386437287726 10.7573447109590798
 11.4665536705095601  9.5824555533455875 13.3215145115048763
 12.0220445917592045 12.0858165258567656 12.6562827564271423
