Pd                                      
    1.000000000000000     
    23.9920309346574214    0.0000000000000000    0.0000000000000000
     0.0000000000000000   24.6932496807816655    0.0000000000000000
     0.0000000000000000    0.0000000000000000   24.1751051048581509
   Pd
    16
Direct
  0.5139662001781999  0.5905803573008195  0.5813701465328165
  0.4607172009370871  0.5214362215900439  0.6440408097075244
  0.6098350530408808  0.5367401595894052  0.5519071181458569
  0.5809575619629208  0.6299940838201366  0.5041668355293664
  0.5110113121300801  0.4890847080915098  0.5503268919945684
  0.4836359977218688  0.5879305693505467  0.4764376298546019
  0.4182919114383987  0.4364767628284837  0.5942055692879746
  0.4134202942967102  0.5365154432616677  0.5458196876830222
  0.5913128707798216  0.4424468121615326  0.4950446482293036
  0.3971896900366148  0.5367080812277225  0.4364648280853946
  0.4833104008572017  0.3916357413747667  0.5187860123912701
  0.5738720957331803  0.5368445254895361  0.4486757416755638
  0.5387069213121608  0.3799160111004396  0.4277628396410471
  0.3882716971398656  0.4430333701259372  0.4898987050031017
  0.4906817175735052  0.5532686274537670  0.3745156418269983
  0.4845805889760614  0.4703958518236565  0.4418613800710563
 
  0.00000000E+00  0.00000000E+00  0.00000000E+00
  0.00000000E+00  0.00000000E+00  0.00000000E+00
  0.00000000E+00  0.00000000E+00  0.00000000E+00
  0.00000000E+00  0.00000000E+00  0.00000000E+00
  0.00000000E+00  0.00000000E+00  0.00000000E+00
  0.00000000E+00  0.00000000E+00  0.00000000E+00
  0.00000000E+00  0.00000000E+00  0.00000000E+00
  0.00000000E+00  0.00000000E+00  0.00000000E+00
  0.00000000E+00  0.00000000E+00  0.00000000E+00
  0.00000000E+00  0.00000000E+00  0.00000000E+00
  0.00000000E+00  0.00000000E+00  0.00000000E+00
  0.00000000E+00  0.00000000E+00  0.00000000E+00
  0.00000000E+00  0.00000000E+00  0.00000000E+00
  0.00000000E+00  0.00000000E+00  0.00000000E+00
  0.00000000E+00  0.00000000E+00  0.00000000E+00
  0.00000000E+00  0.00000000E+00  0.00000000E+00
