Pd 
 1.0000000000000000
    23.9920309346574214    0.0000000000000000    0.0000000000000000
     0.0000000000000000   24.6932496807816655    0.0000000000000000
     0.0000000000000000    0.0000000000000000   24.1751051048581509
 Pd 
  16
Cartesian
 12.5097460540259817 14.6235208420902136 14.1769944128908243
 10.9555746640956180 13.0284989155301183 15.4380761859609592
 14.5135979765496543 13.1645097402429396 13.2743928779228018
 13.9486846975420491 15.4350770862923152 12.2031455487059795
 12.0728327265535818 12.2108287927779298 13.1512162861212492
 11.5753939101397521 14.4172885865863396 11.7241547482348238
 10.1589174732869747 10.8518322513845451 14.3844753387612716
  9.6621628244274333 13.2394090112210225 13.1972946652294851
 14.0209453005001237 10.9087904426221076 11.9185015538867063
  9.6123133857970782 13.1669340982147993 10.5433958989315357
 11.7400600798130661  9.6661333821966213 12.5638257550723367
 13.7774555758109702 13.2786071803645349 10.7698250943249310
 12.8913907154412311  9.2740313276914872 10.3352239776284378
  9.5594581550760509 10.9577053854901898 11.8956595010410489
 11.7384831207515692 13.7932040443474921  9.2124633977986878
 11.7539872006275363 11.5793470000210945 10.5772565805661571
